<?xml version="1.0"?>
<VTKFile type="UnstructuredGrid" version="0.1" byte_order="LittleEndian">
<UnstructuredGrid>
<Piece NumberOfPoints="121" NumberOfCells="100">
<Points>
<DataArray type="Float32" Name="Position" NumberOfComponents="3" format="ascii">
0.000000e+00 0.000000e+00 0.000000e+00 
 3.000000e+01 0.000000e+00 0.000000e+00 
 3.000000e+01 3.000000e+01 0.000000e+00 
 0.000000e+00 3.000000e+01 0.000000e+00 
 3.000000e+00 3.000000e+01 0.000000e+00 
 6.000000e+00 3.000000e+01 0.000000e+00 
 9.000000e+00 3.000000e+01 0.000000e+00 
 1.200000e+01 3.000000e+01 0.000000e+00 
 1.500000e+01 3.000000e+01 0.000000e+00 
 1.800000e+01 3.000000e+01 0.000000e+00 
 2.100000e+01 3.000000e+01 0.000000e+00 
 2.400000e+01 3.000000e+01 0.000000e+00 
 2.700000e+01 3.000000e+01 0.000000e+00 
 3.000000e+01 2.700000e+01 0.000000e+00 
 3.000000e+01 2.400000e+01 0.000000e+00 
 3.000000e+01 2.100000e+01 0.000000e+00 
 3.000000e+01 1.800000e+01 0.000000e+00 
 3.000000e+01 1.500000e+01 0.000000e+00 
 3.000000e+01 1.200000e+01 0.000000e+00 
 3.000000e+01 9.000000e+00 0.000000e+00 
 3.000000e+01 6.000000e+00 0.000000e+00 
 3.000000e+01 3.000000e+00 0.000000e+00 
 2.700000e+01 0.000000e+00 0.000000e+00 
 2.400000e+01 0.000000e+00 0.000000e+00 
 2.100000e+01 0.000000e+00 0.000000e+00 
 1.800000e+01 0.000000e+00 0.000000e+00 
 1.500000e+01 0.000000e+00 0.000000e+00 
 1.200000e+01 0.000000e+00 0.000000e+00 
 9.000000e+00 0.000000e+00 0.000000e+00 
 6.000000e+00 0.000000e+00 0.000000e+00 
 3.000000e+00 0.000000e+00 0.000000e+00 
 0.000000e+00 3.000000e+00 0.000000e+00 
 0.000000e+00 6.000000e+00 0.000000e+00 
 0.000000e+00 9.000000e+00 0.000000e+00 
 0.000000e+00 1.200000e+01 0.000000e+00 
 0.000000e+00 1.500000e+01 0.000000e+00 
 0.000000e+00 1.800000e+01 0.000000e+00 
 0.000000e+00 2.100000e+01 0.000000e+00 
 0.000000e+00 2.400000e+01 0.000000e+00 
 0.000000e+00 2.700000e+01 0.000000e+00 
 3.000000e+00 3.000000e+00 0.000000e+00 
 6.000000e+00 3.000000e+00 0.000000e+00 
 9.000000e+00 3.000000e+00 0.000000e+00 
 1.200000e+01 3.000000e+00 0.000000e+00 
 1.500000e+01 3.000000e+00 0.000000e+00 
 1.800000e+01 3.000000e+00 0.000000e+00 
 2.100000e+01 3.000000e+00 0.000000e+00 
 2.400000e+01 3.000000e+00 0.000000e+00 
 2.700000e+01 3.000000e+00 0.000000e+00 
 3.000000e+00 6.000000e+00 0.000000e+00 
 6.000000e+00 6.000000e+00 0.000000e+00 
 9.000000e+00 6.000000e+00 0.000000e+00 
 1.200000e+01 6.000000e+00 0.000000e+00 
 1.500000e+01 6.000000e+00 0.000000e+00 
 1.800000e+01 6.000000e+00 0.000000e+00 
 2.100000e+01 6.000000e+00 0.000000e+00 
 2.400000e+01 6.000000e+00 0.000000e+00 
 2.700000e+01 6.000000e+00 0.000000e+00 
 3.000000e+00 9.000000e+00 0.000000e+00 
 6.000000e+00 9.000000e+00 0.000000e+00 
 9.000000e+00 9.000000e+00 0.000000e+00 
 1.200000e+01 9.000000e+00 0.000000e+00 
 1.500000e+01 9.000000e+00 0.000000e+00 
 1.800000e+01 9.000000e+00 0.000000e+00 
 2.100000e+01 9.000000e+00 0.000000e+00 
 2.400000e+01 9.000000e+00 0.000000e+00 
 2.700000e+01 9.000000e+00 0.000000e+00 
 3.000000e+00 1.200000e+01 0.000000e+00 
 6.000000e+00 1.200000e+01 0.000000e+00 
 9.000000e+00 1.200000e+01 0.000000e+00 
 1.200000e+01 1.200000e+01 0.000000e+00 
 1.500000e+01 1.200000e+01 0.000000e+00 
 1.800000e+01 1.200000e+01 0.000000e+00 
 2.100000e+01 1.200000e+01 0.000000e+00 
 2.400000e+01 1.200000e+01 0.000000e+00 
 2.700000e+01 1.200000e+01 0.000000e+00 
 3.000000e+00 1.500000e+01 0.000000e+00 
 6.000000e+00 1.500000e+01 0.000000e+00 
 9.000000e+00 1.500000e+01 0.000000e+00 
 1.200000e+01 1.500000e+01 0.000000e+00 
 1.500000e+01 1.500000e+01 0.000000e+00 
 1.800000e+01 1.500000e+01 0.000000e+00 
 2.100000e+01 1.500000e+01 0.000000e+00 
 2.400000e+01 1.500000e+01 0.000000e+00 
 2.700000e+01 1.500000e+01 0.000000e+00 
 3.000000e+00 1.800000e+01 0.000000e+00 
 6.000000e+00 1.800000e+01 0.000000e+00 
 9.000000e+00 1.800000e+01 0.000000e+00 
 1.200000e+01 1.800000e+01 0.000000e+00 
 1.500000e+01 1.800000e+01 0.000000e+00 
 1.800000e+01 1.800000e+01 0.000000e+00 
 2.100000e+01 1.800000e+01 0.000000e+00 
 2.400000e+01 1.800000e+01 0.000000e+00 
 2.700000e+01 1.800000e+01 0.000000e+00 
 3.000000e+00 2.100000e+01 0.000000e+00 
 6.000000e+00 2.100000e+01 0.000000e+00 
 9.000000e+00 2.100000e+01 0.000000e+00 
 1.200000e+01 2.100000e+01 0.000000e+00 
 1.500000e+01 2.100000e+01 0.000000e+00 
 1.800000e+01 2.100000e+01 0.000000e+00 
 2.100000e+01 2.100000e+01 0.000000e+00 
 2.400000e+01 2.100000e+01 0.000000e+00 
 2.700000e+01 2.100000e+01 0.000000e+00 
 3.000000e+00 2.400000e+01 0.000000e+00 
 6.000000e+00 2.400000e+01 0.000000e+00 
 9.000000e+00 2.400000e+01 0.000000e+00 
 1.200000e+01 2.400000e+01 0.000000e+00 
 1.500000e+01 2.400000e+01 0.000000e+00 
 1.800000e+01 2.400000e+01 0.000000e+00 
 2.100000e+01 2.400000e+01 0.000000e+00 
 2.400000e+01 2.400000e+01 0.000000e+00 
 2.700000e+01 2.400000e+01 0.000000e+00 
 3.000000e+00 2.700000e+01 0.000000e+00 
 6.000000e+00 2.700000e+01 0.000000e+00 
 9.000000e+00 2.700000e+01 0.000000e+00 
 1.200000e+01 2.700000e+01 0.000000e+00 
 1.500000e+01 2.700000e+01 0.000000e+00 
 1.800000e+01 2.700000e+01 0.000000e+00 
 2.100000e+01 2.700000e+01 0.000000e+00 
 2.400000e+01 2.700000e+01 0.000000e+00 
 2.700000e+01 2.700000e+01 0.000000e+00 
 </DataArray>
</Points>
<Cells>
<DataArray type="Int32" Name="connectivity" NumberOfComponents="1" format="ascii">
0 31 40 30 
30 40 41 29 
29 41 42 28 
28 42 43 27 
27 43 44 26 
26 44 45 25 
25 45 46 24 
24 46 47 23 
23 47 48 22 
22 48 21 1 
31 32 49 40 
40 49 50 41 
41 50 51 42 
42 51 52 43 
43 52 53 44 
44 53 54 45 
45 54 55 46 
46 55 56 47 
47 56 57 48 
48 57 20 21 
32 33 58 49 
49 58 59 50 
50 59 60 51 
51 60 61 52 
52 61 62 53 
53 62 63 54 
54 63 64 55 
55 64 65 56 
56 65 66 57 
57 66 19 20 
33 34 67 58 
58 67 68 59 
59 68 69 60 
60 69 70 61 
61 70 71 62 
62 71 72 63 
63 72 73 64 
64 73 74 65 
65 74 75 66 
66 75 18 19 
34 35 76 67 
67 76 77 68 
68 77 78 69 
69 78 79 70 
70 79 80 71 
71 80 81 72 
72 81 82 73 
73 82 83 74 
74 83 84 75 
75 84 17 18 
35 36 85 76 
76 85 86 77 
77 86 87 78 
78 87 88 79 
79 88 89 80 
80 89 90 81 
81 90 91 82 
82 91 92 83 
83 92 93 84 
84 93 16 17 
36 37 94 85 
85 94 95 86 
86 95 96 87 
87 96 97 88 
88 97 98 89 
89 98 99 90 
90 99 100 91 
91 100 101 92 
92 101 102 93 
93 102 15 16 
37 38 103 94 
94 103 104 95 
95 104 105 96 
96 105 106 97 
97 106 107 98 
98 107 108 99 
99 108 109 100 
100 109 110 101 
101 110 111 102 
102 111 14 15 
38 39 112 103 
103 112 113 104 
104 113 114 105 
105 114 115 106 
106 115 116 107 
107 116 117 108 
108 117 118 109 
109 118 119 110 
110 119 120 111 
111 120 13 14 
39 3 4 112 
112 4 5 113 
113 5 6 114 
114 6 7 115 
115 7 8 116 
116 8 9 117 
117 9 10 118 
118 10 11 119 
119 11 12 120 
120 12 2 13 
</DataArray>
<DataArray type="Int32" Name="offsets" NumberOfComponents="1" format="ascii">
4 8 12 16 20 24 28 32 36 40 44 48 52 56 60 64 68 72 76 80 84 88 92 96 100 104 108 112 116 120 124 128 132 136 140 144 148 152 156 160 164 168 172 176 180 184 188 192 196 200 204 208 212 216 220 224 228 232 236 240 244 248 252 256 260 264 268 272 276 280 284 288 292 296 300 304 308 312 316 320 324 328 332 336 340 344 348 352 356 360 364 368 372 376 380 384 388 392 396 400 
</DataArray>
<DataArray type="UInt8"  Name="types" NumberOfComponents="1" format="ascii">
9 9 9 9 9 9 9 9 9 9 9 9 9 9 9 9 9 9 9 9 9 9 9 9 9 9 9 9 9 9 9 9 9 9 9 9 9 9 9 9 9 9 9 9 9 9 9 9 9 9 9 9 9 9 9 9 9 9 9 9 9 9 9 9 9 9 9 9 9 9 9 9 9 9 9 9 9 9 9 9 9 9 9 9 9 9 9 9 9 9 9 9 9 9 9 9 9 9 9 9 
</DataArray>
</Cells>
<PointData Vectors="displ">
<DataArray type="Float64" Name="displ" NumberOfComponents="3" format="ascii" >
0.000000 0.000000 0.000000 
0.105000 0.000000 0.000000 
0.105000 0.000000 0.000000 
0.000000 0.000000 0.000000 
0.013366 -0.005245 0.000000 
0.023823 -0.008518 0.000000 
0.033558 -0.010577 0.000000 
0.043066 -0.011718 0.000000 
0.052500 -0.012085 0.000000 
0.061934 -0.011718 0.000000 
0.071442 -0.010577 0.000000 
0.081177 -0.008518 0.000000 
0.091634 -0.005245 0.000000 
0.105000 0.000000 0.000000 
0.105000 0.000000 0.000000 
0.105000 0.000000 0.000000 
0.105000 0.000000 0.000000 
0.105000 0.000000 0.000000 
0.105000 0.000000 0.000000 
0.105000 0.000000 0.000000 
0.105000 0.000000 0.000000 
0.105000 0.000000 0.000000 
0.091634 0.005245 0.000000 
0.081177 0.008518 0.000000 
0.071442 0.010577 0.000000 
0.061934 0.011718 0.000000 
0.052500 0.012085 0.000000 
0.043066 0.011718 0.000000 
0.033558 0.010577 0.000000 
0.023823 0.008518 0.000000 
0.013366 0.005245 0.000000 
0.000000 0.000000 0.000000 
0.000000 0.000000 0.000000 
0.000000 0.000000 0.000000 
0.000000 0.000000 0.000000 
0.000000 0.000000 0.000000 
0.000000 0.000000 0.000000 
0.000000 0.000000 0.000000 
0.000000 0.000000 0.000000 
0.000000 0.000000 0.000000 
0.010544 0.002891 0.000000 
0.021596 0.006054 0.000000 
0.032128 0.008117 0.000000 
0.042371 0.009272 0.000000 
0.052500 0.009644 0.000000 
0.062629 0.009272 0.000000 
0.072872 0.008117 0.000000 
0.083404 0.006054 0.000000 
0.094456 0.002891 0.000000 
0.009863 0.001885 0.000000 
0.020323 0.003959 0.000000 
0.031092 0.005715 0.000000 
0.041821 0.006772 0.000000 
0.052500 0.007120 0.000000 
0.063179 0.006772 0.000000 
0.073908 0.005715 0.000000 
0.084677 0.003959 0.000000 
0.095137 0.001885 0.000000 
0.009631 0.001187 0.000000 
0.019840 0.002445 0.000000 
0.030522 0.003584 0.000000 
0.041469 0.004364 0.000000 
0.052500 0.004635 0.000000 
0.063531 0.004364 0.000000 
0.074478 0.003584 0.000000 
0.085160 0.002445 0.000000 
0.095369 0.001187 0.000000 
0.009554 0.000579 0.000000 
0.019670 0.001178 0.000000 
0.030298 0.001727 0.000000 
0.041302 0.002122 0.000000 
0.052500 0.002267 0.000000 
0.063698 0.002122 0.000000 
0.074702 0.001727 0.000000 
0.085330 0.001178 0.000000 
0.095446 0.000579 0.000000 
0.009536 0.000000 0.000000 
0.019630 0.000000 0.000000 
0.030242 0.000000 0.000000 
0.041259 0.000000 0.000000 
0.052500 -0.000000 0.000000 
0.063741 -0.000000 0.000000 
0.074758 -0.000000 0.000000 
0.085370 -0.000000 0.000000 
0.095464 -0.000000 0.000000 
0.009554 -0.000579 0.000000 
0.019670 -0.001178 0.000000 
0.030298 -0.001727 0.000000 
0.041302 -0.002122 0.000000 
0.052500 -0.002267 0.000000 
0.063698 -0.002122 0.000000 
0.074702 -0.001727 0.000000 
0.085330 -0.001178 0.000000 
0.095446 -0.000579 0.000000 
0.009631 -0.001187 0.000000 
0.019840 -0.002445 0.000000 
0.030522 -0.003584 0.000000 
0.041469 -0.004364 0.000000 
0.052500 -0.004635 0.000000 
0.063531 -0.004364 0.000000 
0.074478 -0.003584 0.000000 
0.085160 -0.002445 0.000000 
0.095369 -0.001187 0.000000 
0.009863 -0.001885 0.000000 
0.020323 -0.003959 0.000000 
0.031092 -0.005715 0.000000 
0.041821 -0.006772 0.000000 
0.052500 -0.007120 0.000000 
0.063179 -0.006772 0.000000 
0.073908 -0.005715 0.000000 
0.084677 -0.003959 0.000000 
0.095137 -0.001885 0.000000 
0.010544 -0.002891 0.000000 
0.021596 -0.006054 0.000000 
0.032128 -0.008117 0.000000 
0.042371 -0.009272 0.000000 
0.052500 -0.009644 0.000000 
0.062629 -0.009272 0.000000 
0.072872 -0.008117 0.000000 
0.083404 -0.006054 0.000000 
0.094456 -0.002891 0.000000 
</DataArray>
<DataArray type="Float64" Name="residual" NumberOfComponents="3" format="ascii" >
-83240.029545 -25889.930261 0.000000 
83240.029546 -25889.930261 0.000000 
83240.029546 25889.930261 0.000000 
-83240.029546 25889.930261 0.000000 
0.000000 -0.000000 0.000000 
0.000000 -0.000000 0.000000 
-0.000000 0.000000 0.000000 
0.000000 0.000000 0.000000 
0.000000 0.000000 0.000000 
-0.000000 0.000000 0.000000 
0.000000 0.000000 0.000000 
0.000000 -0.000000 0.000000 
0.000000 -0.000000 0.000000 
118849.698106 19324.124527 0.000000 
110100.608841 14625.352692 0.000000 
107587.249847 9626.408891 0.000000 
106720.044819 4804.124625 0.000000 
106516.490364 0.000000 0.000000 
106720.044820 -4804.124625 0.000000 
107587.249847 -9626.408892 0.000000 
110100.608841 -14625.352692 0.000000 
118849.698106 -19324.124527 0.000000 
0.000000 0.000000 0.000000 
-0.000000 -0.000000 0.000000 
-0.000000 -0.000000 0.000000 
0.000000 -0.000000 0.000000 
-0.000000 0.000000 0.000000 
-0.000000 0.000000 0.000000 
0.000000 0.000000 0.000000 
-0.000000 -0.000000 0.000000 
-0.000000 0.000000 0.000000 
-118849.698106 -19324.124527 0.000000 
-110100.608841 -14625.352692 0.000000 
-107587.249847 -9626.408892 0.000000 
-106720.044819 -4804.124625 0.000000 
-106516.490364 -0.000000 0.000000 
-106720.044820 4804.124625 0.000000 
-107587.249847 9626.408892 0.000000 
-110100.608841 14625.352692 0.000000 
-118849.698106 19324.124527 0.000000 
-0.000000 -0.000000 0.000000 
0.000000 -0.000000 0.000000 
0.000000 0.000000 0.000000 
0.000000 0.000000 0.000000 
-0.000000 0.000000 0.000000 
-0.000000 -0.000000 0.000000 
0.000000 -0.000000 0.000000 
0.000000 0.000000 0.000000 
0.000000 0.000000 0.000000 
-0.000000 0.000000 0.000000 
0.000000 0.000000 0.000000 
0.000000 0.000000 0.000000 
0.000000 -0.000000 0.000000 
0.000000 0.000000 0.000000 
-0.000000 0.000000 0.000000 
0.000000 0.000000 0.000000 
-0.000000 0.000000 0.000000 
0.000000 -0.000000 0.000000 
0.000000 -0.000000 0.000000 
0.000000 0.000000 0.000000 
-0.000000 -0.000000 0.000000 
-0.000000 0.000000 0.000000 
-0.000000 -0.000000 0.000000 
-0.000000 0.000000 0.000000 
-0.000000 -0.000000 0.000000 
-0.000000 -0.000000 0.000000 
-0.000000 0.000000 0.000000 
-0.000000 0.000000 0.000000 
0.000000 0.000000 0.000000 
0.000000 -0.000000 0.000000 
0.000000 -0.000000 0.000000 
0.000000 0.000000 0.000000 
-0.000000 -0.000000 0.000000 
0.000000 0.000000 0.000000 
0.000000 0.000000 0.000000 
0.000000 0.000000 0.000000 
0.000000 0.000000 0.000000 
-0.000000 0.000000 0.000000 
0.000000 -0.000000 0.000000 
-0.000000 -0.000000 0.000000 
-0.000000 0.000000 0.000000 
-0.000000 0.000000 0.000000 
0.000000 0.000000 0.000000 
0.000000 0.000000 0.000000 
-0.000000 0.000000 0.000000 
-0.000000 0.000000 0.000000 
0.000000 -0.000000 0.000000 
0.000000 0.000000 0.000000 
0.000000 -0.000000 0.000000 
-0.000000 -0.000000 0.000000 
-0.000000 0.000000 0.000000 
0.000000 0.000000 0.000000 
0.000000 -0.000000 0.000000 
-0.000000 -0.000000 0.000000 
-0.000000 0.000000 0.000000 
-0.000000 0.000000 0.000000 
-0.000000 0.000000 0.000000 
0.000000 0.000000 0.000000 
-0.000000 -0.000000 0.000000 
0.000000 0.000000 0.000000 
-0.000000 -0.000000 0.000000 
0.000000 -0.000000 0.000000 
-0.000000 -0.000000 0.000000 
0.000000 0.000000 0.000000 
-0.000000 0.000000 0.000000 
-0.000000 -0.000000 0.000000 
0.000000 -0.000000 0.000000 
0.000000 0.000000 0.000000 
-0.000000 -0.000000 0.000000 
-0.000000 -0.000000 0.000000 
-0.000000 0.000000 0.000000 
-0.000000 0.000000 0.000000 
0.000000 -0.000000 0.000000 
0.000000 0.000000 0.000000 
-0.000000 0.000000 0.000000 
0.000000 -0.000000 0.000000 
-0.000000 -0.000000 0.000000 
0.000000 -0.000000 0.000000 
0.000000 0.000000 0.000000 
0.000000 0.000000 0.000000 
-0.000000 0.000000 0.000000 
</DataArray>
<DataArray type="Int32" Name="bc_kinds" NumberOfComponents="1" format="ascii" >
-1 -1 -1 -1 -1 -1 -1 -1 -1 -1 -1 -1 -1 -1 -1 -1 -1 -1 -1 -1 -1 -1 -1 -1 -1 -1 -1 -1 -1 -1 -1 -1 -1 -1 -1 -1 -1 -1 -1 -1 -1 -1 -1 -1 -1 -1 -1 -1 -1 -1 -1 -1 -1 -1 -1 -1 -1 -1 -1 -1 -1 -1 -1 -1 -1 -1 -1 -1 -1 -1 -1 -1 -1 -1 -1 -1 -1 -1 -1 -1 -1 -1 -1 -1 -1 -1 -1 -1 -1 -1 -1 -1 -1 -1 -1 -1 -1 -1 -1 -1 -1 -1 -1 -1 -1 -1 -1 -1 -1 -1 -1 -1 -1 -1 -1 -1 -1 -1 -1 -1 -1 
</DataArray>
</PointData>
<CellData>
<DataArray type="Int32" Name="part" NumberOfComponents="1" format="ascii">
0 0 0 0 0 0 0 0 0 0 0 0 0 0 0 0 0 0 0 0 0 0 0 0 0 0 0 0 0 0 0 0 0 0 0 0 0 0 0 0 0 0 0 0 0 0 0 0 0 0 0 0 0 0 0 0 0 0 0 0 0 0 0 0 0 0 0 0 0 0 0 0 0 0 0 0 0 0 0 0 0 0 0 0 0 0 0 0 0 0 0 0 0 0 0 0 0 0 0 0 
</DataArray>
<DataArray type="Float64" Name="strain" NumberOfComponents="4" format="ascii">
0.003985 0.000886 0.000886 -0.000392 0.003585 0.000231 0.000231 -0.000803 0.003378 0.000078 0.000078 -0.000821 0.003292 0.000028 0.000028 -0.000818 0.003261 0.000007 0.000007 -0.000814 0.003261 -0.000007 -0.000007 -0.000814 0.003292 -0.000028 -0.000028 -0.000818 0.003378 -0.000078 -0.000078 -0.000821 0.003585 -0.000231 -0.000231 -0.000803 0.003985 -0.000886 -0.000886 -0.000392 0.003401 0.000682 0.000682 -0.000168 0.003585 0.000547 0.000547 -0.000517 0.003550 0.000252 0.000252 -0.000750 0.003495 0.000104 0.000104 -0.000817 0.003468 0.000028 0.000028 -0.000837 0.003468 -0.000028 -0.000028 -0.000837 0.003495 -0.000104 -0.000104 -0.000817 0.003550 -0.000252 -0.000252 -0.000750 0.003585 -0.000547 -0.000547 -0.000517 0.003401 -0.000682 -0.000682 -0.000168 0.003249 0.000473 0.000473 -0.000116 0.003445 0.000436 0.000436 -0.000369 0.003575 0.000307 0.000307 -0.000608 0.003613 0.000153 0.000153 -0.000756 0.003618 0.000044 0.000044 -0.000815 0.003618 -0.000044 -0.000044 -0.000815 0.003613 -0.000153 -0.000153 -0.000756 0.003575 -0.000307 -0.000307 -0.000608 0.003445 -0.000436 -0.000436 -0.000369 0.003249 -0.000473 -0.000473 -0.000116 0.003197 0.000281 0.000281 -0.000101 0.003388 0.000268 0.000268 -0.000312 0.003552 0.000216 0.000216 -0.000521 0.003659 0.000131 0.000131 -0.000683 0.003705 0.000041 0.000041 -0.000768 0.003705 -0.000041 -0.000041 -0.000768 0.003659 -0.000131 -0.000131 -0.000683 0.003552 -0.000216 -0.000216 -0.000521 0.003388 -0.000268 -0.000268 -0.000312 0.003197 -0.000281 -0.000281 -0.000101 0.003182 0.000094 0.000094 -0.000097 0.003369 0.000090 0.000090 -0.000293 0.003540 0.000076 0.000076 -0.000484 0.003670 0.000049 0.000049 -0.000642 0.003740 0.000017 0.000017 -0.000732 0.003740 -0.000017 -0.000017 -0.000732 0.003670 -0.000049 -0.000049 -0.000642 0.003540 -0.000076 -0.000076 -0.000484 0.003369 -0.000090 -0.000090 -0.000293 0.003182 -0.000094 -0.000094 -0.000097 0.003182 -0.000094 -0.000094 -0.000097 0.003369 -0.000090 -0.000090 -0.000293 0.003540 -0.000076 -0.000076 -0.000484 0.003670 -0.000049 -0.000049 -0.000642 0.003740 -0.000017 -0.000017 -0.000732 0.003740 0.000017 0.000017 -0.000732 0.003670 0.000049 0.000049 -0.000642 0.003540 0.000076 0.000076 -0.000484 0.003369 0.000090 0.000090 -0.000293 0.003182 0.000094 0.000094 -0.000097 0.003197 -0.000281 -0.000281 -0.000101 0.003388 -0.000268 -0.000268 -0.000312 0.003552 -0.000216 -0.000216 -0.000521 0.003659 -0.000131 -0.000131 -0.000683 0.003705 -0.000041 -0.000041 -0.000768 0.003705 0.000041 0.000041 -0.000768 0.003659 0.000131 0.000131 -0.000683 0.003552 0.000216 0.000216 -0.000521 0.003388 0.000268 0.000268 -0.000312 0.003197 0.000281 0.000281 -0.000101 0.003249 -0.000473 -0.000473 -0.000116 0.003445 -0.000436 -0.000436 -0.000369 0.003575 -0.000307 -0.000307 -0.000608 0.003613 -0.000153 -0.000153 -0.000756 0.003618 -0.000044 -0.000044 -0.000815 0.003618 0.000044 0.000044 -0.000815 0.003613 0.000153 0.000153 -0.000756 0.003575 0.000307 0.000307 -0.000608 0.003445 0.000436 0.000436 -0.000369 0.003249 0.000473 0.000473 -0.000116 0.003401 -0.000682 -0.000682 -0.000168 0.003585 -0.000547 -0.000547 -0.000517 0.003550 -0.000252 -0.000252 -0.000750 0.003495 -0.000104 -0.000104 -0.000817 0.003468 -0.000028 -0.000028 -0.000837 0.003468 0.000028 0.000028 -0.000837 0.003495 0.000104 0.000104 -0.000817 0.003550 0.000252 0.000252 -0.000750 0.003585 0.000547 0.000547 -0.000517 0.003401 0.000682 0.000682 -0.000168 0.003985 -0.000886 -0.000886 -0.000392 0.003585 -0.000231 -0.000231 -0.000803 0.003378 -0.000078 -0.000078 -0.000821 0.003292 -0.000028 -0.000028 -0.000818 0.003261 -0.000007 -0.000007 -0.000814 0.003261 0.000007 0.000007 -0.000814 0.003292 0.000028 0.000028 -0.000818 0.003378 0.000078 0.000078 -0.000821 0.003585 0.000231 0.000231 -0.000803 0.003985 0.000886 0.000886 -0.000392 
</DataArray>
<DataArray type="Float64" Name="stress" NumberOfComponents="4" format="ascii">
44720.650312 7620.131857 7620.131857 7009.723141 38926.997283 1991.058014 1991.058014 1126.572744 36493.496061 667.334975 667.334975 324.370394 35513.745703 243.478513 243.478513 111.616827 35163.793765 62.378799 62.378799 57.693647 35163.793765 -62.378799 -62.378799 57.693647 35513.745703 -243.478513 -243.478513 111.616827 36493.496061 -667.334975 -667.334975 324.370394 38926.997283 -1991.058014 -1991.058014 1126.572744 44720.650312 -7620.131857 -7620.131857 7009.723141 38652.342928 5871.572813 5871.572813 7907.295045 39760.776841 4707.102569 4707.102569 4421.770491 38682.951975 2164.946385 2164.946385 1641.817739 37856.143054 898.417247 898.417247 705.947982 37485.317191 243.670296 243.670296 394.520338 37485.317191 -243.670296 -243.670296 394.520338 37856.143054 -898.417247 -898.417247 705.947982 38682.951975 -2164.946385 -2164.946385 1641.817739 39760.776841 -4707.102569 -4707.102569 4421.770491 38652.342928 -5871.572813 -5871.572813 7907.295045 37049.100883 4072.768547 4072.768547 8056.582458 38572.573048 3753.196932 3753.196932 5718.258494 39381.985193 2642.448446 2642.448446 3347.482595 39380.979993 1312.612590 1312.612590 1743.165819 39278.109340 381.900842 381.900842 1080.979794 39278.109340 -381.900842 -381.900842 1080.979794 39380.979993 -1312.612590 -1312.612590 1743.165819 39381.985193 -2642.448446 -2642.448446 3347.482595 38572.573048 -3753.196932 -3753.196932 5718.258494 37049.100883 -4072.768547 -4072.768547 8056.582458 36499.640898 2421.404300 2421.404300 8081.187295 38077.417284 2307.338108 2307.338108 6201.932045 39361.075907 1855.132940 1855.132940 4280.354211 40122.524565 1125.035440 1125.035440 2718.940275 40408.527430 356.731434 356.731434 1872.858298 40408.527430 -356.731434 -356.731434 1872.858298 40122.524565 -1125.035440 -1125.035440 2718.940275 39361.075907 -1855.132940 -1855.132940 4280.354211 38077.417283 -2307.338108 -2307.338108 6201.932045 36499.640898 -2421.404300 -2421.404300 8081.187295 36330.223759 804.487966 804.487966 8090.005211 37914.194326 775.148713 775.148713 6371.745249 39332.449644 650.821810 650.821810 4665.684586 40378.565466 425.856728 425.856728 3232.044490 40916.211054 146.048385 146.048385 2397.167463 40916.211054 -146.048385 -146.048385 2397.167463 40378.565466 -425.856728 -425.856728 3232.044490 39332.449644 -650.821810 -650.821810 4665.684586 37914.194326 -775.148713 -775.148713 6371.745249 36330.223759 -804.487966 -804.487966 8090.005211 36330.223759 -804.487966 -804.487966 8090.005211 37914.194326 -775.148713 -775.148713 6371.745249 39332.449644 -650.821810 -650.821810 4665.684586 40378.565466 -425.856728 -425.856728 3232.044490 40916.211054 -146.048385 -146.048385 2397.167463 40916.211054 146.048385 146.048385 2397.167463 40378.565466 425.856728 425.856728 3232.044490 39332.449644 650.821810 650.821810 4665.684586 37914.194326 775.148713 775.148713 6371.745249 36330.223759 804.487966 804.487966 8090.005211 36499.640898 -2421.404300 -2421.404300 8081.187295 38077.417283 -2307.338108 -2307.338108 6201.932045 39361.075907 -1855.132940 -1855.132940 4280.354211 40122.524565 -1125.035440 -1125.035440 2718.940275 40408.527430 -356.731434 -356.731434 1872.858298 40408.527430 356.731434 356.731434 1872.858298 40122.524565 1125.035440 1125.035440 2718.940275 39361.075907 1855.132940 1855.132940 4280.354211 38077.417284 2307.338108 2307.338108 6201.932045 36499.640898 2421.404300 2421.404300 8081.187295 37049.100883 -4072.768547 -4072.768547 8056.582458 38572.573048 -3753.196932 -3753.196932 5718.258494 39381.985193 -2642.448446 -2642.448446 3347.482595 39380.979993 -1312.612590 -1312.612590 1743.165819 39278.109340 -381.900842 -381.900842 1080.979794 39278.109340 381.900842 381.900842 1080.979794 39380.979993 1312.612590 1312.612590 1743.165819 39381.985193 2642.448446 2642.448446 3347.482595 38572.573048 3753.196932 3753.196932 5718.258494 37049.100883 4072.768547 4072.768547 8056.582458 38652.342928 -5871.572813 -5871.572813 7907.295045 39760.776841 -4707.102569 -4707.102569 4421.770491 38682.951975 -2164.946385 -2164.946385 1641.817739 37856.143054 -898.417247 -898.417247 705.947982 37485.317191 -243.670296 -243.670296 394.520338 37485.317191 243.670296 243.670296 394.520338 37856.143054 898.417247 898.417247 705.947982 38682.951975 2164.946385 2164.946385 1641.817739 39760.776841 4707.102569 4707.102569 4421.770491 38652.342928 5871.572813 5871.572813 7907.295045 44720.650312 -7620.131857 -7620.131857 7009.723141 38926.997283 -1991.058014 -1991.058014 1126.572744 36493.496061 -667.334976 -667.334976 324.370394 35513.745703 -243.478513 -243.478513 111.616827 35163.793765 -62.378799 -62.378799 57.693647 35163.793765 62.378799 62.378799 57.693647 35513.745703 243.478513 243.478513 111.616827 36493.496061 667.334975 667.334975 324.370394 38926.997283 1991.058014 1991.058014 1126.572744 44720.650312 7620.131857 7620.131857 7009.723141 
</DataArray>
<DataArray type="Float64" Name="energy" NumberOfComponents="1" format="ascii">
184.727979 139.168967 123.169141 116.920777 114.698765 114.698765 116.920777 123.169141 139.168967 184.727979 134.421450 143.130733 136.671659 131.879326 129.736070 129.736070 131.879326 136.671659 143.130733 134.421450 121.464081 132.540829 139.648566 141.169204 141.284071 141.284071 141.169204 139.648566 132.540829 121.464081 116.639265 127.756394 138.028750 145.108419 148.289929 148.289929 145.108419 138.028750 127.756394 116.639265 114.943183 125.986320 137.078604 146.179961 151.266837 151.266837 146.179961 137.078604 125.986320 114.943183 114.943183 125.986320 137.078604 146.179961 151.266837 151.266837 146.179961 137.078604 125.986320 114.943183 116.639265 127.756394 138.028750 145.108419 148.289929 148.289929 145.108419 138.028750 127.756394 116.639265 121.464081 132.540829 139.648566 141.169204 141.284071 141.284071 141.169204 139.648566 132.540829 121.464081 134.421450 143.130733 136.671659 131.879326 129.736070 129.736070 131.879326 136.671659 143.130733 134.421450 184.727979 139.168967 123.169141 116.920777 114.698765 114.698765 116.920777 123.169141 139.168967 184.727979 
</DataArray>
</CellData>
</Piece>
</UnstructuredGrid>
</VTKFile>
