<?xml version="1.0"?>
<VTKFile type="UnstructuredGrid" version="0.1" byte_order="LittleEndian">
<UnstructuredGrid>
<Piece NumberOfPoints="1681" NumberOfCells="1600">
<Points>
<DataArray type="Float32" Name="Position" NumberOfComponents="3" format="ascii">
0.000000e+00 0.000000e+00 0.000000e+00 
 3.000000e+01 0.000000e+00 0.000000e+00 
 3.000000e+01 3.000000e+01 0.000000e+00 
 0.000000e+00 3.000000e+01 0.000000e+00 
 7.500000e-01 3.000000e+01 0.000000e+00 
 1.500000e+00 3.000000e+01 0.000000e+00 
 2.250000e+00 3.000000e+01 0.000000e+00 
 3.000000e+00 3.000000e+01 0.000000e+00 
 3.750000e+00 3.000000e+01 0.000000e+00 
 4.500000e+00 3.000000e+01 0.000000e+00 
 5.250000e+00 3.000000e+01 0.000000e+00 
 6.000000e+00 3.000000e+01 0.000000e+00 
 6.750000e+00 3.000000e+01 0.000000e+00 
 7.500000e+00 3.000000e+01 0.000000e+00 
 8.250000e+00 3.000000e+01 0.000000e+00 
 9.000000e+00 3.000000e+01 0.000000e+00 
 9.750000e+00 3.000000e+01 0.000000e+00 
 1.050000e+01 3.000000e+01 0.000000e+00 
 1.125000e+01 3.000000e+01 0.000000e+00 
 1.200000e+01 3.000000e+01 0.000000e+00 
 1.275000e+01 3.000000e+01 0.000000e+00 
 1.350000e+01 3.000000e+01 0.000000e+00 
 1.425000e+01 3.000000e+01 0.000000e+00 
 1.500000e+01 3.000000e+01 0.000000e+00 
 1.575000e+01 3.000000e+01 0.000000e+00 
 1.650000e+01 3.000000e+01 0.000000e+00 
 1.725000e+01 3.000000e+01 0.000000e+00 
 1.800000e+01 3.000000e+01 0.000000e+00 
 1.875000e+01 3.000000e+01 0.000000e+00 
 1.950000e+01 3.000000e+01 0.000000e+00 
 2.025000e+01 3.000000e+01 0.000000e+00 
 2.100000e+01 3.000000e+01 0.000000e+00 
 2.175000e+01 3.000000e+01 0.000000e+00 
 2.250000e+01 3.000000e+01 0.000000e+00 
 2.325000e+01 3.000000e+01 0.000000e+00 
 2.400000e+01 3.000000e+01 0.000000e+00 
 2.475000e+01 3.000000e+01 0.000000e+00 
 2.550000e+01 3.000000e+01 0.000000e+00 
 2.625000e+01 3.000000e+01 0.000000e+00 
 2.700000e+01 3.000000e+01 0.000000e+00 
 2.775000e+01 3.000000e+01 0.000000e+00 
 2.850000e+01 3.000000e+01 0.000000e+00 
 2.925000e+01 3.000000e+01 0.000000e+00 
 3.000000e+01 2.925000e+01 0.000000e+00 
 3.000000e+01 2.850000e+01 0.000000e+00 
 3.000000e+01 2.775000e+01 0.000000e+00 
 3.000000e+01 2.700000e+01 0.000000e+00 
 3.000000e+01 2.625000e+01 0.000000e+00 
 3.000000e+01 2.550000e+01 0.000000e+00 
 3.000000e+01 2.475000e+01 0.000000e+00 
 3.000000e+01 2.400000e+01 0.000000e+00 
 3.000000e+01 2.325000e+01 0.000000e+00 
 3.000000e+01 2.250000e+01 0.000000e+00 
 3.000000e+01 2.175000e+01 0.000000e+00 
 3.000000e+01 2.100000e+01 0.000000e+00 
 3.000000e+01 2.025000e+01 0.000000e+00 
 3.000000e+01 1.950000e+01 0.000000e+00 
 3.000000e+01 1.875000e+01 0.000000e+00 
 3.000000e+01 1.800000e+01 0.000000e+00 
 3.000000e+01 1.725000e+01 0.000000e+00 
 3.000000e+01 1.650000e+01 0.000000e+00 
 3.000000e+01 1.575000e+01 0.000000e+00 
 3.000000e+01 1.500000e+01 0.000000e+00 
 3.000000e+01 1.425000e+01 0.000000e+00 
 3.000000e+01 1.350000e+01 0.000000e+00 
 3.000000e+01 1.275000e+01 0.000000e+00 
 3.000000e+01 1.200000e+01 0.000000e+00 
 3.000000e+01 1.125000e+01 0.000000e+00 
 3.000000e+01 1.050000e+01 0.000000e+00 
 3.000000e+01 9.750000e+00 0.000000e+00 
 3.000000e+01 9.000000e+00 0.000000e+00 
 3.000000e+01 8.250000e+00 0.000000e+00 
 3.000000e+01 7.500000e+00 0.000000e+00 
 3.000000e+01 6.750000e+00 0.000000e+00 
 3.000000e+01 6.000000e+00 0.000000e+00 
 3.000000e+01 5.250000e+00 0.000000e+00 
 3.000000e+01 4.500000e+00 0.000000e+00 
 3.000000e+01 3.750000e+00 0.000000e+00 
 3.000000e+01 3.000000e+00 0.000000e+00 
 3.000000e+01 2.250000e+00 0.000000e+00 
 3.000000e+01 1.500000e+00 0.000000e+00 
 3.000000e+01 7.500000e-01 0.000000e+00 
 2.925000e+01 0.000000e+00 0.000000e+00 
 2.850000e+01 0.000000e+00 0.000000e+00 
 2.775000e+01 0.000000e+00 0.000000e+00 
 2.700000e+01 0.000000e+00 0.000000e+00 
 2.625000e+01 0.000000e+00 0.000000e+00 
 2.550000e+01 0.000000e+00 0.000000e+00 
 2.475000e+01 0.000000e+00 0.000000e+00 
 2.400000e+01 0.000000e+00 0.000000e+00 
 2.325000e+01 0.000000e+00 0.000000e+00 
 2.250000e+01 0.000000e+00 0.000000e+00 
 2.175000e+01 0.000000e+00 0.000000e+00 
 2.100000e+01 0.000000e+00 0.000000e+00 
 2.025000e+01 0.000000e+00 0.000000e+00 
 1.950000e+01 0.000000e+00 0.000000e+00 
 1.875000e+01 0.000000e+00 0.000000e+00 
 1.800000e+01 0.000000e+00 0.000000e+00 
 1.725000e+01 0.000000e+00 0.000000e+00 
 1.650000e+01 0.000000e+00 0.000000e+00 
 1.575000e+01 0.000000e+00 0.000000e+00 
 1.500000e+01 0.000000e+00 0.000000e+00 
 1.425000e+01 0.000000e+00 0.000000e+00 
 1.350000e+01 0.000000e+00 0.000000e+00 
 1.275000e+01 0.000000e+00 0.000000e+00 
 1.200000e+01 0.000000e+00 0.000000e+00 
 1.125000e+01 0.000000e+00 0.000000e+00 
 1.050000e+01 0.000000e+00 0.000000e+00 
 9.750000e+00 0.000000e+00 0.000000e+00 
 9.000000e+00 0.000000e+00 0.000000e+00 
 8.250000e+00 0.000000e+00 0.000000e+00 
 7.500000e+00 0.000000e+00 0.000000e+00 
 6.750000e+00 0.000000e+00 0.000000e+00 
 6.000000e+00 0.000000e+00 0.000000e+00 
 5.250000e+00 0.000000e+00 0.000000e+00 
 4.500000e+00 0.000000e+00 0.000000e+00 
 3.750000e+00 0.000000e+00 0.000000e+00 
 3.000000e+00 0.000000e+00 0.000000e+00 
 2.250000e+00 0.000000e+00 0.000000e+00 
 1.500000e+00 0.000000e+00 0.000000e+00 
 7.500000e-01 0.000000e+00 0.000000e+00 
 0.000000e+00 7.500000e-01 0.000000e+00 
 0.000000e+00 1.500000e+00 0.000000e+00 
 0.000000e+00 2.250000e+00 0.000000e+00 
 0.000000e+00 3.000000e+00 0.000000e+00 
 0.000000e+00 3.750000e+00 0.000000e+00 
 0.000000e+00 4.500000e+00 0.000000e+00 
 0.000000e+00 5.250000e+00 0.000000e+00 
 0.000000e+00 6.000000e+00 0.000000e+00 
 0.000000e+00 6.750000e+00 0.000000e+00 
 0.000000e+00 7.500000e+00 0.000000e+00 
 0.000000e+00 8.250000e+00 0.000000e+00 
 0.000000e+00 9.000000e+00 0.000000e+00 
 0.000000e+00 9.750000e+00 0.000000e+00 
 0.000000e+00 1.050000e+01 0.000000e+00 
 0.000000e+00 1.125000e+01 0.000000e+00 
 0.000000e+00 1.200000e+01 0.000000e+00 
 0.000000e+00 1.275000e+01 0.000000e+00 
 0.000000e+00 1.350000e+01 0.000000e+00 
 0.000000e+00 1.425000e+01 0.000000e+00 
 0.000000e+00 1.500000e+01 0.000000e+00 
 0.000000e+00 1.575000e+01 0.000000e+00 
 0.000000e+00 1.650000e+01 0.000000e+00 
 0.000000e+00 1.725000e+01 0.000000e+00 
 0.000000e+00 1.800000e+01 0.000000e+00 
 0.000000e+00 1.875000e+01 0.000000e+00 
 0.000000e+00 1.950000e+01 0.000000e+00 
 0.000000e+00 2.025000e+01 0.000000e+00 
 0.000000e+00 2.100000e+01 0.000000e+00 
 0.000000e+00 2.175000e+01 0.000000e+00 
 0.000000e+00 2.250000e+01 0.000000e+00 
 0.000000e+00 2.325000e+01 0.000000e+00 
 0.000000e+00 2.400000e+01 0.000000e+00 
 0.000000e+00 2.475000e+01 0.000000e+00 
 0.000000e+00 2.550000e+01 0.000000e+00 
 0.000000e+00 2.625000e+01 0.000000e+00 
 0.000000e+00 2.700000e+01 0.000000e+00 
 0.000000e+00 2.775000e+01 0.000000e+00 
 0.000000e+00 2.850000e+01 0.000000e+00 
 0.000000e+00 2.925000e+01 0.000000e+00 
 7.500000e-01 7.500000e-01 0.000000e+00 
 1.500000e+00 7.500000e-01 0.000000e+00 
 2.250000e+00 7.500000e-01 0.000000e+00 
 3.000000e+00 7.500000e-01 0.000000e+00 
 3.750000e+00 7.500000e-01 0.000000e+00 
 4.500000e+00 7.500000e-01 0.000000e+00 
 5.250000e+00 7.500000e-01 0.000000e+00 
 6.000000e+00 7.500000e-01 0.000000e+00 
 6.750000e+00 7.500000e-01 0.000000e+00 
 7.500000e+00 7.500000e-01 0.000000e+00 
 8.250000e+00 7.500000e-01 0.000000e+00 
 9.000000e+00 7.500000e-01 0.000000e+00 
 9.750000e+00 7.500000e-01 0.000000e+00 
 1.050000e+01 7.500000e-01 0.000000e+00 
 1.125000e+01 7.500000e-01 0.000000e+00 
 1.200000e+01 7.500000e-01 0.000000e+00 
 1.275000e+01 7.500000e-01 0.000000e+00 
 1.350000e+01 7.500000e-01 0.000000e+00 
 1.425000e+01 7.500000e-01 0.000000e+00 
 1.500000e+01 7.500000e-01 0.000000e+00 
 1.575000e+01 7.500000e-01 0.000000e+00 
 1.650000e+01 7.500000e-01 0.000000e+00 
 1.725000e+01 7.500000e-01 0.000000e+00 
 1.800000e+01 7.500000e-01 0.000000e+00 
 1.875000e+01 7.500000e-01 0.000000e+00 
 1.950000e+01 7.500000e-01 0.000000e+00 
 2.025000e+01 7.500000e-01 0.000000e+00 
 2.100000e+01 7.500000e-01 0.000000e+00 
 2.175000e+01 7.500000e-01 0.000000e+00 
 2.250000e+01 7.500000e-01 0.000000e+00 
 2.325000e+01 7.500000e-01 0.000000e+00 
 2.400000e+01 7.500000e-01 0.000000e+00 
 2.475000e+01 7.500000e-01 0.000000e+00 
 2.550000e+01 7.500000e-01 0.000000e+00 
 2.625000e+01 7.500000e-01 0.000000e+00 
 2.700000e+01 7.500000e-01 0.000000e+00 
 2.775000e+01 7.500000e-01 0.000000e+00 
 2.850000e+01 7.500000e-01 0.000000e+00 
 2.925000e+01 7.500000e-01 0.000000e+00 
 7.500000e-01 1.500000e+00 0.000000e+00 
 1.500000e+00 1.500000e+00 0.000000e+00 
 2.250000e+00 1.500000e+00 0.000000e+00 
 3.000000e+00 1.500000e+00 0.000000e+00 
 3.750000e+00 1.500000e+00 0.000000e+00 
 4.500000e+00 1.500000e+00 0.000000e+00 
 5.250000e+00 1.500000e+00 0.000000e+00 
 6.000000e+00 1.500000e+00 0.000000e+00 
 6.750000e+00 1.500000e+00 0.000000e+00 
 7.500000e+00 1.500000e+00 0.000000e+00 
 8.250000e+00 1.500000e+00 0.000000e+00 
 9.000000e+00 1.500000e+00 0.000000e+00 
 9.750000e+00 1.500000e+00 0.000000e+00 
 1.050000e+01 1.500000e+00 0.000000e+00 
 1.125000e+01 1.500000e+00 0.000000e+00 
 1.200000e+01 1.500000e+00 0.000000e+00 
 1.275000e+01 1.500000e+00 0.000000e+00 
 1.350000e+01 1.500000e+00 0.000000e+00 
 1.425000e+01 1.500000e+00 0.000000e+00 
 1.500000e+01 1.500000e+00 0.000000e+00 
 1.575000e+01 1.500000e+00 0.000000e+00 
 1.650000e+01 1.500000e+00 0.000000e+00 
 1.725000e+01 1.500000e+00 0.000000e+00 
 1.800000e+01 1.500000e+00 0.000000e+00 
 1.875000e+01 1.500000e+00 0.000000e+00 
 1.950000e+01 1.500000e+00 0.000000e+00 
 2.025000e+01 1.500000e+00 0.000000e+00 
 2.100000e+01 1.500000e+00 0.000000e+00 
 2.175000e+01 1.500000e+00 0.000000e+00 
 2.250000e+01 1.500000e+00 0.000000e+00 
 2.325000e+01 1.500000e+00 0.000000e+00 
 2.400000e+01 1.500000e+00 0.000000e+00 
 2.475000e+01 1.500000e+00 0.000000e+00 
 2.550000e+01 1.500000e+00 0.000000e+00 
 2.625000e+01 1.500000e+00 0.000000e+00 
 2.700000e+01 1.500000e+00 0.000000e+00 
 2.775000e+01 1.500000e+00 0.000000e+00 
 2.850000e+01 1.500000e+00 0.000000e+00 
 2.925000e+01 1.500000e+00 0.000000e+00 
 7.500000e-01 2.250000e+00 0.000000e+00 
 1.500000e+00 2.250000e+00 0.000000e+00 
 2.250000e+00 2.250000e+00 0.000000e+00 
 3.000000e+00 2.250000e+00 0.000000e+00 
 3.750000e+00 2.250000e+00 0.000000e+00 
 4.500000e+00 2.250000e+00 0.000000e+00 
 5.250000e+00 2.250000e+00 0.000000e+00 
 6.000000e+00 2.250000e+00 0.000000e+00 
 6.750000e+00 2.250000e+00 0.000000e+00 
 7.500000e+00 2.250000e+00 0.000000e+00 
 8.250000e+00 2.250000e+00 0.000000e+00 
 9.000000e+00 2.250000e+00 0.000000e+00 
 9.750000e+00 2.250000e+00 0.000000e+00 
 1.050000e+01 2.250000e+00 0.000000e+00 
 1.125000e+01 2.250000e+00 0.000000e+00 
 1.200000e+01 2.250000e+00 0.000000e+00 
 1.275000e+01 2.250000e+00 0.000000e+00 
 1.350000e+01 2.250000e+00 0.000000e+00 
 1.425000e+01 2.250000e+00 0.000000e+00 
 1.500000e+01 2.250000e+00 0.000000e+00 
 1.575000e+01 2.250000e+00 0.000000e+00 
 1.650000e+01 2.250000e+00 0.000000e+00 
 1.725000e+01 2.250000e+00 0.000000e+00 
 1.800000e+01 2.250000e+00 0.000000e+00 
 1.875000e+01 2.250000e+00 0.000000e+00 
 1.950000e+01 2.250000e+00 0.000000e+00 
 2.025000e+01 2.250000e+00 0.000000e+00 
 2.100000e+01 2.250000e+00 0.000000e+00 
 2.175000e+01 2.250000e+00 0.000000e+00 
 2.250000e+01 2.250000e+00 0.000000e+00 
 2.325000e+01 2.250000e+00 0.000000e+00 
 2.400000e+01 2.250000e+00 0.000000e+00 
 2.475000e+01 2.250000e+00 0.000000e+00 
 2.550000e+01 2.250000e+00 0.000000e+00 
 2.625000e+01 2.250000e+00 0.000000e+00 
 2.700000e+01 2.250000e+00 0.000000e+00 
 2.775000e+01 2.250000e+00 0.000000e+00 
 2.850000e+01 2.250000e+00 0.000000e+00 
 2.925000e+01 2.250000e+00 0.000000e+00 
 7.500000e-01 3.000000e+00 0.000000e+00 
 1.500000e+00 3.000000e+00 0.000000e+00 
 2.250000e+00 3.000000e+00 0.000000e+00 
 3.000000e+00 3.000000e+00 0.000000e+00 
 3.750000e+00 3.000000e+00 0.000000e+00 
 4.500000e+00 3.000000e+00 0.000000e+00 
 5.250000e+00 3.000000e+00 0.000000e+00 
 6.000000e+00 3.000000e+00 0.000000e+00 
 6.750000e+00 3.000000e+00 0.000000e+00 
 7.500000e+00 3.000000e+00 0.000000e+00 
 8.250000e+00 3.000000e+00 0.000000e+00 
 9.000000e+00 3.000000e+00 0.000000e+00 
 9.750000e+00 3.000000e+00 0.000000e+00 
 1.050000e+01 3.000000e+00 0.000000e+00 
 1.125000e+01 3.000000e+00 0.000000e+00 
 1.200000e+01 3.000000e+00 0.000000e+00 
 1.275000e+01 3.000000e+00 0.000000e+00 
 1.350000e+01 3.000000e+00 0.000000e+00 
 1.425000e+01 3.000000e+00 0.000000e+00 
 1.500000e+01 3.000000e+00 0.000000e+00 
 1.575000e+01 3.000000e+00 0.000000e+00 
 1.650000e+01 3.000000e+00 0.000000e+00 
 1.725000e+01 3.000000e+00 0.000000e+00 
 1.800000e+01 3.000000e+00 0.000000e+00 
 1.875000e+01 3.000000e+00 0.000000e+00 
 1.950000e+01 3.000000e+00 0.000000e+00 
 2.025000e+01 3.000000e+00 0.000000e+00 
 2.100000e+01 3.000000e+00 0.000000e+00 
 2.175000e+01 3.000000e+00 0.000000e+00 
 2.250000e+01 3.000000e+00 0.000000e+00 
 2.325000e+01 3.000000e+00 0.000000e+00 
 2.400000e+01 3.000000e+00 0.000000e+00 
 2.475000e+01 3.000000e+00 0.000000e+00 
 2.550000e+01 3.000000e+00 0.000000e+00 
 2.625000e+01 3.000000e+00 0.000000e+00 
 2.700000e+01 3.000000e+00 0.000000e+00 
 2.775000e+01 3.000000e+00 0.000000e+00 
 2.850000e+01 3.000000e+00 0.000000e+00 
 2.925000e+01 3.000000e+00 0.000000e+00 
 7.500000e-01 3.750000e+00 0.000000e+00 
 1.500000e+00 3.750000e+00 0.000000e+00 
 2.250000e+00 3.750000e+00 0.000000e+00 
 3.000000e+00 3.750000e+00 0.000000e+00 
 3.750000e+00 3.750000e+00 0.000000e+00 
 4.500000e+00 3.750000e+00 0.000000e+00 
 5.250000e+00 3.750000e+00 0.000000e+00 
 6.000000e+00 3.750000e+00 0.000000e+00 
 6.750000e+00 3.750000e+00 0.000000e+00 
 7.500000e+00 3.750000e+00 0.000000e+00 
 8.250000e+00 3.750000e+00 0.000000e+00 
 9.000000e+00 3.750000e+00 0.000000e+00 
 9.750000e+00 3.750000e+00 0.000000e+00 
 1.050000e+01 3.750000e+00 0.000000e+00 
 1.125000e+01 3.750000e+00 0.000000e+00 
 1.200000e+01 3.750000e+00 0.000000e+00 
 1.275000e+01 3.750000e+00 0.000000e+00 
 1.350000e+01 3.750000e+00 0.000000e+00 
 1.425000e+01 3.750000e+00 0.000000e+00 
 1.500000e+01 3.750000e+00 0.000000e+00 
 1.575000e+01 3.750000e+00 0.000000e+00 
 1.650000e+01 3.750000e+00 0.000000e+00 
 1.725000e+01 3.750000e+00 0.000000e+00 
 1.800000e+01 3.750000e+00 0.000000e+00 
 1.875000e+01 3.750000e+00 0.000000e+00 
 1.950000e+01 3.750000e+00 0.000000e+00 
 2.025000e+01 3.750000e+00 0.000000e+00 
 2.100000e+01 3.750000e+00 0.000000e+00 
 2.175000e+01 3.750000e+00 0.000000e+00 
 2.250000e+01 3.750000e+00 0.000000e+00 
 2.325000e+01 3.750000e+00 0.000000e+00 
 2.400000e+01 3.750000e+00 0.000000e+00 
 2.475000e+01 3.750000e+00 0.000000e+00 
 2.550000e+01 3.750000e+00 0.000000e+00 
 2.625000e+01 3.750000e+00 0.000000e+00 
 2.700000e+01 3.750000e+00 0.000000e+00 
 2.775000e+01 3.750000e+00 0.000000e+00 
 2.850000e+01 3.750000e+00 0.000000e+00 
 2.925000e+01 3.750000e+00 0.000000e+00 
 7.500000e-01 4.500000e+00 0.000000e+00 
 1.500000e+00 4.500000e+00 0.000000e+00 
 2.250000e+00 4.500000e+00 0.000000e+00 
 3.000000e+00 4.500000e+00 0.000000e+00 
 3.750000e+00 4.500000e+00 0.000000e+00 
 4.500000e+00 4.500000e+00 0.000000e+00 
 5.250000e+00 4.500000e+00 0.000000e+00 
 6.000000e+00 4.500000e+00 0.000000e+00 
 6.750000e+00 4.500000e+00 0.000000e+00 
 7.500000e+00 4.500000e+00 0.000000e+00 
 8.250000e+00 4.500000e+00 0.000000e+00 
 9.000000e+00 4.500000e+00 0.000000e+00 
 9.750000e+00 4.500000e+00 0.000000e+00 
 1.050000e+01 4.500000e+00 0.000000e+00 
 1.125000e+01 4.500000e+00 0.000000e+00 
 1.200000e+01 4.500000e+00 0.000000e+00 
 1.275000e+01 4.500000e+00 0.000000e+00 
 1.350000e+01 4.500000e+00 0.000000e+00 
 1.425000e+01 4.500000e+00 0.000000e+00 
 1.500000e+01 4.500000e+00 0.000000e+00 
 1.575000e+01 4.500000e+00 0.000000e+00 
 1.650000e+01 4.500000e+00 0.000000e+00 
 1.725000e+01 4.500000e+00 0.000000e+00 
 1.800000e+01 4.500000e+00 0.000000e+00 
 1.875000e+01 4.500000e+00 0.000000e+00 
 1.950000e+01 4.500000e+00 0.000000e+00 
 2.025000e+01 4.500000e+00 0.000000e+00 
 2.100000e+01 4.500000e+00 0.000000e+00 
 2.175000e+01 4.500000e+00 0.000000e+00 
 2.250000e+01 4.500000e+00 0.000000e+00 
 2.325000e+01 4.500000e+00 0.000000e+00 
 2.400000e+01 4.500000e+00 0.000000e+00 
 2.475000e+01 4.500000e+00 0.000000e+00 
 2.550000e+01 4.500000e+00 0.000000e+00 
 2.625000e+01 4.500000e+00 0.000000e+00 
 2.700000e+01 4.500000e+00 0.000000e+00 
 2.775000e+01 4.500000e+00 0.000000e+00 
 2.850000e+01 4.500000e+00 0.000000e+00 
 2.925000e+01 4.500000e+00 0.000000e+00 
 7.500000e-01 5.250000e+00 0.000000e+00 
 1.500000e+00 5.250000e+00 0.000000e+00 
 2.250000e+00 5.250000e+00 0.000000e+00 
 3.000000e+00 5.250000e+00 0.000000e+00 
 3.750000e+00 5.250000e+00 0.000000e+00 
 4.500000e+00 5.250000e+00 0.000000e+00 
 5.250000e+00 5.250000e+00 0.000000e+00 
 6.000000e+00 5.250000e+00 0.000000e+00 
 6.750000e+00 5.250000e+00 0.000000e+00 
 7.500000e+00 5.250000e+00 0.000000e+00 
 8.250000e+00 5.250000e+00 0.000000e+00 
 9.000000e+00 5.250000e+00 0.000000e+00 
 9.750000e+00 5.250000e+00 0.000000e+00 
 1.050000e+01 5.250000e+00 0.000000e+00 
 1.125000e+01 5.250000e+00 0.000000e+00 
 1.200000e+01 5.250000e+00 0.000000e+00 
 1.275000e+01 5.250000e+00 0.000000e+00 
 1.350000e+01 5.250000e+00 0.000000e+00 
 1.425000e+01 5.250000e+00 0.000000e+00 
 1.500000e+01 5.250000e+00 0.000000e+00 
 1.575000e+01 5.250000e+00 0.000000e+00 
 1.650000e+01 5.250000e+00 0.000000e+00 
 1.725000e+01 5.250000e+00 0.000000e+00 
 1.800000e+01 5.250000e+00 0.000000e+00 
 1.875000e+01 5.250000e+00 0.000000e+00 
 1.950000e+01 5.250000e+00 0.000000e+00 
 2.025000e+01 5.250000e+00 0.000000e+00 
 2.100000e+01 5.250000e+00 0.000000e+00 
 2.175000e+01 5.250000e+00 0.000000e+00 
 2.250000e+01 5.250000e+00 0.000000e+00 
 2.325000e+01 5.250000e+00 0.000000e+00 
 2.400000e+01 5.250000e+00 0.000000e+00 
 2.475000e+01 5.250000e+00 0.000000e+00 
 2.550000e+01 5.250000e+00 0.000000e+00 
 2.625000e+01 5.250000e+00 0.000000e+00 
 2.700000e+01 5.250000e+00 0.000000e+00 
 2.775000e+01 5.250000e+00 0.000000e+00 
 2.850000e+01 5.250000e+00 0.000000e+00 
 2.925000e+01 5.250000e+00 0.000000e+00 
 7.500000e-01 6.000000e+00 0.000000e+00 
 1.500000e+00 6.000000e+00 0.000000e+00 
 2.250000e+00 6.000000e+00 0.000000e+00 
 3.000000e+00 6.000000e+00 0.000000e+00 
 3.750000e+00 6.000000e+00 0.000000e+00 
 4.500000e+00 6.000000e+00 0.000000e+00 
 5.250000e+00 6.000000e+00 0.000000e+00 
 6.000000e+00 6.000000e+00 0.000000e+00 
 6.750000e+00 6.000000e+00 0.000000e+00 
 7.500000e+00 6.000000e+00 0.000000e+00 
 8.250000e+00 6.000000e+00 0.000000e+00 
 9.000000e+00 6.000000e+00 0.000000e+00 
 9.750000e+00 6.000000e+00 0.000000e+00 
 1.050000e+01 6.000000e+00 0.000000e+00 
 1.125000e+01 6.000000e+00 0.000000e+00 
 1.200000e+01 6.000000e+00 0.000000e+00 
 1.275000e+01 6.000000e+00 0.000000e+00 
 1.350000e+01 6.000000e+00 0.000000e+00 
 1.425000e+01 6.000000e+00 0.000000e+00 
 1.500000e+01 6.000000e+00 0.000000e+00 
 1.575000e+01 6.000000e+00 0.000000e+00 
 1.650000e+01 6.000000e+00 0.000000e+00 
 1.725000e+01 6.000000e+00 0.000000e+00 
 1.800000e+01 6.000000e+00 0.000000e+00 
 1.875000e+01 6.000000e+00 0.000000e+00 
 1.950000e+01 6.000000e+00 0.000000e+00 
 2.025000e+01 6.000000e+00 0.000000e+00 
 2.100000e+01 6.000000e+00 0.000000e+00 
 2.175000e+01 6.000000e+00 0.000000e+00 
 2.250000e+01 6.000000e+00 0.000000e+00 
 2.325000e+01 6.000000e+00 0.000000e+00 
 2.400000e+01 6.000000e+00 0.000000e+00 
 2.475000e+01 6.000000e+00 0.000000e+00 
 2.550000e+01 6.000000e+00 0.000000e+00 
 2.625000e+01 6.000000e+00 0.000000e+00 
 2.700000e+01 6.000000e+00 0.000000e+00 
 2.775000e+01 6.000000e+00 0.000000e+00 
 2.850000e+01 6.000000e+00 0.000000e+00 
 2.925000e+01 6.000000e+00 0.000000e+00 
 7.500000e-01 6.750000e+00 0.000000e+00 
 1.500000e+00 6.750000e+00 0.000000e+00 
 2.250000e+00 6.750000e+00 0.000000e+00 
 3.000000e+00 6.750000e+00 0.000000e+00 
 3.750000e+00 6.750000e+00 0.000000e+00 
 4.500000e+00 6.750000e+00 0.000000e+00 
 5.250000e+00 6.750000e+00 0.000000e+00 
 6.000000e+00 6.750000e+00 0.000000e+00 
 6.750000e+00 6.750000e+00 0.000000e+00 
 7.500000e+00 6.750000e+00 0.000000e+00 
 8.250000e+00 6.750000e+00 0.000000e+00 
 9.000000e+00 6.750000e+00 0.000000e+00 
 9.750000e+00 6.750000e+00 0.000000e+00 
 1.050000e+01 6.750000e+00 0.000000e+00 
 1.125000e+01 6.750000e+00 0.000000e+00 
 1.200000e+01 6.750000e+00 0.000000e+00 
 1.275000e+01 6.750000e+00 0.000000e+00 
 1.350000e+01 6.750000e+00 0.000000e+00 
 1.425000e+01 6.750000e+00 0.000000e+00 
 1.500000e+01 6.750000e+00 0.000000e+00 
 1.575000e+01 6.750000e+00 0.000000e+00 
 1.650000e+01 6.750000e+00 0.000000e+00 
 1.725000e+01 6.750000e+00 0.000000e+00 
 1.800000e+01 6.750000e+00 0.000000e+00 
 1.875000e+01 6.750000e+00 0.000000e+00 
 1.950000e+01 6.750000e+00 0.000000e+00 
 2.025000e+01 6.750000e+00 0.000000e+00 
 2.100000e+01 6.750000e+00 0.000000e+00 
 2.175000e+01 6.750000e+00 0.000000e+00 
 2.250000e+01 6.750000e+00 0.000000e+00 
 2.325000e+01 6.750000e+00 0.000000e+00 
 2.400000e+01 6.750000e+00 0.000000e+00 
 2.475000e+01 6.750000e+00 0.000000e+00 
 2.550000e+01 6.750000e+00 0.000000e+00 
 2.625000e+01 6.750000e+00 0.000000e+00 
 2.700000e+01 6.750000e+00 0.000000e+00 
 2.775000e+01 6.750000e+00 0.000000e+00 
 2.850000e+01 6.750000e+00 0.000000e+00 
 2.925000e+01 6.750000e+00 0.000000e+00 
 7.500000e-01 7.500000e+00 0.000000e+00 
 1.500000e+00 7.500000e+00 0.000000e+00 
 2.250000e+00 7.500000e+00 0.000000e+00 
 3.000000e+00 7.500000e+00 0.000000e+00 
 3.750000e+00 7.500000e+00 0.000000e+00 
 4.500000e+00 7.500000e+00 0.000000e+00 
 5.250000e+00 7.500000e+00 0.000000e+00 
 6.000000e+00 7.500000e+00 0.000000e+00 
 6.750000e+00 7.500000e+00 0.000000e+00 
 7.500000e+00 7.500000e+00 0.000000e+00 
 8.250000e+00 7.500000e+00 0.000000e+00 
 9.000000e+00 7.500000e+00 0.000000e+00 
 9.750000e+00 7.500000e+00 0.000000e+00 
 1.050000e+01 7.500000e+00 0.000000e+00 
 1.125000e+01 7.500000e+00 0.000000e+00 
 1.200000e+01 7.500000e+00 0.000000e+00 
 1.275000e+01 7.500000e+00 0.000000e+00 
 1.350000e+01 7.500000e+00 0.000000e+00 
 1.425000e+01 7.500000e+00 0.000000e+00 
 1.500000e+01 7.500000e+00 0.000000e+00 
 1.575000e+01 7.500000e+00 0.000000e+00 
 1.650000e+01 7.500000e+00 0.000000e+00 
 1.725000e+01 7.500000e+00 0.000000e+00 
 1.800000e+01 7.500000e+00 0.000000e+00 
 1.875000e+01 7.500000e+00 0.000000e+00 
 1.950000e+01 7.500000e+00 0.000000e+00 
 2.025000e+01 7.500000e+00 0.000000e+00 
 2.100000e+01 7.500000e+00 0.000000e+00 
 2.175000e+01 7.500000e+00 0.000000e+00 
 2.250000e+01 7.500000e+00 0.000000e+00 
 2.325000e+01 7.500000e+00 0.000000e+00 
 2.400000e+01 7.500000e+00 0.000000e+00 
 2.475000e+01 7.500000e+00 0.000000e+00 
 2.550000e+01 7.500000e+00 0.000000e+00 
 2.625000e+01 7.500000e+00 0.000000e+00 
 2.700000e+01 7.500000e+00 0.000000e+00 
 2.775000e+01 7.500000e+00 0.000000e+00 
 2.850000e+01 7.500000e+00 0.000000e+00 
 2.925000e+01 7.500000e+00 0.000000e+00 
 7.500000e-01 8.250000e+00 0.000000e+00 
 1.500000e+00 8.250000e+00 0.000000e+00 
 2.250000e+00 8.250000e+00 0.000000e+00 
 3.000000e+00 8.250000e+00 0.000000e+00 
 3.750000e+00 8.250000e+00 0.000000e+00 
 4.500000e+00 8.250000e+00 0.000000e+00 
 5.250000e+00 8.250000e+00 0.000000e+00 
 6.000000e+00 8.250000e+00 0.000000e+00 
 6.750000e+00 8.250000e+00 0.000000e+00 
 7.500000e+00 8.250000e+00 0.000000e+00 
 8.250000e+00 8.250000e+00 0.000000e+00 
 9.000000e+00 8.250000e+00 0.000000e+00 
 9.750000e+00 8.250000e+00 0.000000e+00 
 1.050000e+01 8.250000e+00 0.000000e+00 
 1.125000e+01 8.250000e+00 0.000000e+00 
 1.200000e+01 8.250000e+00 0.000000e+00 
 1.275000e+01 8.250000e+00 0.000000e+00 
 1.350000e+01 8.250000e+00 0.000000e+00 
 1.425000e+01 8.250000e+00 0.000000e+00 
 1.500000e+01 8.250000e+00 0.000000e+00 
 1.575000e+01 8.250000e+00 0.000000e+00 
 1.650000e+01 8.250000e+00 0.000000e+00 
 1.725000e+01 8.250000e+00 0.000000e+00 
 1.800000e+01 8.250000e+00 0.000000e+00 
 1.875000e+01 8.250000e+00 0.000000e+00 
 1.950000e+01 8.250000e+00 0.000000e+00 
 2.025000e+01 8.250000e+00 0.000000e+00 
 2.100000e+01 8.250000e+00 0.000000e+00 
 2.175000e+01 8.250000e+00 0.000000e+00 
 2.250000e+01 8.250000e+00 0.000000e+00 
 2.325000e+01 8.250000e+00 0.000000e+00 
 2.400000e+01 8.250000e+00 0.000000e+00 
 2.475000e+01 8.250000e+00 0.000000e+00 
 2.550000e+01 8.250000e+00 0.000000e+00 
 2.625000e+01 8.250000e+00 0.000000e+00 
 2.700000e+01 8.250000e+00 0.000000e+00 
 2.775000e+01 8.250000e+00 0.000000e+00 
 2.850000e+01 8.250000e+00 0.000000e+00 
 2.925000e+01 8.250000e+00 0.000000e+00 
 7.500000e-01 9.000000e+00 0.000000e+00 
 1.500000e+00 9.000000e+00 0.000000e+00 
 2.250000e+00 9.000000e+00 0.000000e+00 
 3.000000e+00 9.000000e+00 0.000000e+00 
 3.750000e+00 9.000000e+00 0.000000e+00 
 4.500000e+00 9.000000e+00 0.000000e+00 
 5.250000e+00 9.000000e+00 0.000000e+00 
 6.000000e+00 9.000000e+00 0.000000e+00 
 6.750000e+00 9.000000e+00 0.000000e+00 
 7.500000e+00 9.000000e+00 0.000000e+00 
 8.250000e+00 9.000000e+00 0.000000e+00 
 9.000000e+00 9.000000e+00 0.000000e+00 
 9.750000e+00 9.000000e+00 0.000000e+00 
 1.050000e+01 9.000000e+00 0.000000e+00 
 1.125000e+01 9.000000e+00 0.000000e+00 
 1.200000e+01 9.000000e+00 0.000000e+00 
 1.275000e+01 9.000000e+00 0.000000e+00 
 1.350000e+01 9.000000e+00 0.000000e+00 
 1.425000e+01 9.000000e+00 0.000000e+00 
 1.500000e+01 9.000000e+00 0.000000e+00 
 1.575000e+01 9.000000e+00 0.000000e+00 
 1.650000e+01 9.000000e+00 0.000000e+00 
 1.725000e+01 9.000000e+00 0.000000e+00 
 1.800000e+01 9.000000e+00 0.000000e+00 
 1.875000e+01 9.000000e+00 0.000000e+00 
 1.950000e+01 9.000000e+00 0.000000e+00 
 2.025000e+01 9.000000e+00 0.000000e+00 
 2.100000e+01 9.000000e+00 0.000000e+00 
 2.175000e+01 9.000000e+00 0.000000e+00 
 2.250000e+01 9.000000e+00 0.000000e+00 
 2.325000e+01 9.000000e+00 0.000000e+00 
 2.400000e+01 9.000000e+00 0.000000e+00 
 2.475000e+01 9.000000e+00 0.000000e+00 
 2.550000e+01 9.000000e+00 0.000000e+00 
 2.625000e+01 9.000000e+00 0.000000e+00 
 2.700000e+01 9.000000e+00 0.000000e+00 
 2.775000e+01 9.000000e+00 0.000000e+00 
 2.850000e+01 9.000000e+00 0.000000e+00 
 2.925000e+01 9.000000e+00 0.000000e+00 
 7.500000e-01 9.750000e+00 0.000000e+00 
 1.500000e+00 9.750000e+00 0.000000e+00 
 2.250000e+00 9.750000e+00 0.000000e+00 
 3.000000e+00 9.750000e+00 0.000000e+00 
 3.750000e+00 9.750000e+00 0.000000e+00 
 4.500000e+00 9.750000e+00 0.000000e+00 
 5.250000e+00 9.750000e+00 0.000000e+00 
 6.000000e+00 9.750000e+00 0.000000e+00 
 6.750000e+00 9.750000e+00 0.000000e+00 
 7.500000e+00 9.750000e+00 0.000000e+00 
 8.250000e+00 9.750000e+00 0.000000e+00 
 9.000000e+00 9.750000e+00 0.000000e+00 
 9.750000e+00 9.750000e+00 0.000000e+00 
 1.050000e+01 9.750000e+00 0.000000e+00 
 1.125000e+01 9.750000e+00 0.000000e+00 
 1.200000e+01 9.750000e+00 0.000000e+00 
 1.275000e+01 9.750000e+00 0.000000e+00 
 1.350000e+01 9.750000e+00 0.000000e+00 
 1.425000e+01 9.750000e+00 0.000000e+00 
 1.500000e+01 9.750000e+00 0.000000e+00 
 1.575000e+01 9.750000e+00 0.000000e+00 
 1.650000e+01 9.750000e+00 0.000000e+00 
 1.725000e+01 9.750000e+00 0.000000e+00 
 1.800000e+01 9.750000e+00 0.000000e+00 
 1.875000e+01 9.750000e+00 0.000000e+00 
 1.950000e+01 9.750000e+00 0.000000e+00 
 2.025000e+01 9.750000e+00 0.000000e+00 
 2.100000e+01 9.750000e+00 0.000000e+00 
 2.175000e+01 9.750000e+00 0.000000e+00 
 2.250000e+01 9.750000e+00 0.000000e+00 
 2.325000e+01 9.750000e+00 0.000000e+00 
 2.400000e+01 9.750000e+00 0.000000e+00 
 2.475000e+01 9.750000e+00 0.000000e+00 
 2.550000e+01 9.750000e+00 0.000000e+00 
 2.625000e+01 9.750000e+00 0.000000e+00 
 2.700000e+01 9.750000e+00 0.000000e+00 
 2.775000e+01 9.750000e+00 0.000000e+00 
 2.850000e+01 9.750000e+00 0.000000e+00 
 2.925000e+01 9.750000e+00 0.000000e+00 
 7.500000e-01 1.050000e+01 0.000000e+00 
 1.500000e+00 1.050000e+01 0.000000e+00 
 2.250000e+00 1.050000e+01 0.000000e+00 
 3.000000e+00 1.050000e+01 0.000000e+00 
 3.750000e+00 1.050000e+01 0.000000e+00 
 4.500000e+00 1.050000e+01 0.000000e+00 
 5.250000e+00 1.050000e+01 0.000000e+00 
 6.000000e+00 1.050000e+01 0.000000e+00 
 6.750000e+00 1.050000e+01 0.000000e+00 
 7.500000e+00 1.050000e+01 0.000000e+00 
 8.250000e+00 1.050000e+01 0.000000e+00 
 9.000000e+00 1.050000e+01 0.000000e+00 
 9.750000e+00 1.050000e+01 0.000000e+00 
 1.050000e+01 1.050000e+01 0.000000e+00 
 1.125000e+01 1.050000e+01 0.000000e+00 
 1.200000e+01 1.050000e+01 0.000000e+00 
 1.275000e+01 1.050000e+01 0.000000e+00 
 1.350000e+01 1.050000e+01 0.000000e+00 
 1.425000e+01 1.050000e+01 0.000000e+00 
 1.500000e+01 1.050000e+01 0.000000e+00 
 1.575000e+01 1.050000e+01 0.000000e+00 
 1.650000e+01 1.050000e+01 0.000000e+00 
 1.725000e+01 1.050000e+01 0.000000e+00 
 1.800000e+01 1.050000e+01 0.000000e+00 
 1.875000e+01 1.050000e+01 0.000000e+00 
 1.950000e+01 1.050000e+01 0.000000e+00 
 2.025000e+01 1.050000e+01 0.000000e+00 
 2.100000e+01 1.050000e+01 0.000000e+00 
 2.175000e+01 1.050000e+01 0.000000e+00 
 2.250000e+01 1.050000e+01 0.000000e+00 
 2.325000e+01 1.050000e+01 0.000000e+00 
 2.400000e+01 1.050000e+01 0.000000e+00 
 2.475000e+01 1.050000e+01 0.000000e+00 
 2.550000e+01 1.050000e+01 0.000000e+00 
 2.625000e+01 1.050000e+01 0.000000e+00 
 2.700000e+01 1.050000e+01 0.000000e+00 
 2.775000e+01 1.050000e+01 0.000000e+00 
 2.850000e+01 1.050000e+01 0.000000e+00 
 2.925000e+01 1.050000e+01 0.000000e+00 
 7.500000e-01 1.125000e+01 0.000000e+00 
 1.500000e+00 1.125000e+01 0.000000e+00 
 2.250000e+00 1.125000e+01 0.000000e+00 
 3.000000e+00 1.125000e+01 0.000000e+00 
 3.750000e+00 1.125000e+01 0.000000e+00 
 4.500000e+00 1.125000e+01 0.000000e+00 
 5.250000e+00 1.125000e+01 0.000000e+00 
 6.000000e+00 1.125000e+01 0.000000e+00 
 6.750000e+00 1.125000e+01 0.000000e+00 
 7.500000e+00 1.125000e+01 0.000000e+00 
 8.250000e+00 1.125000e+01 0.000000e+00 
 9.000000e+00 1.125000e+01 0.000000e+00 
 9.750000e+00 1.125000e+01 0.000000e+00 
 1.050000e+01 1.125000e+01 0.000000e+00 
 1.125000e+01 1.125000e+01 0.000000e+00 
 1.200000e+01 1.125000e+01 0.000000e+00 
 1.275000e+01 1.125000e+01 0.000000e+00 
 1.350000e+01 1.125000e+01 0.000000e+00 
 1.425000e+01 1.125000e+01 0.000000e+00 
 1.500000e+01 1.125000e+01 0.000000e+00 
 1.575000e+01 1.125000e+01 0.000000e+00 
 1.650000e+01 1.125000e+01 0.000000e+00 
 1.725000e+01 1.125000e+01 0.000000e+00 
 1.800000e+01 1.125000e+01 0.000000e+00 
 1.875000e+01 1.125000e+01 0.000000e+00 
 1.950000e+01 1.125000e+01 0.000000e+00 
 2.025000e+01 1.125000e+01 0.000000e+00 
 2.100000e+01 1.125000e+01 0.000000e+00 
 2.175000e+01 1.125000e+01 0.000000e+00 
 2.250000e+01 1.125000e+01 0.000000e+00 
 2.325000e+01 1.125000e+01 0.000000e+00 
 2.400000e+01 1.125000e+01 0.000000e+00 
 2.475000e+01 1.125000e+01 0.000000e+00 
 2.550000e+01 1.125000e+01 0.000000e+00 
 2.625000e+01 1.125000e+01 0.000000e+00 
 2.700000e+01 1.125000e+01 0.000000e+00 
 2.775000e+01 1.125000e+01 0.000000e+00 
 2.850000e+01 1.125000e+01 0.000000e+00 
 2.925000e+01 1.125000e+01 0.000000e+00 
 7.500000e-01 1.200000e+01 0.000000e+00 
 1.500000e+00 1.200000e+01 0.000000e+00 
 2.250000e+00 1.200000e+01 0.000000e+00 
 3.000000e+00 1.200000e+01 0.000000e+00 
 3.750000e+00 1.200000e+01 0.000000e+00 
 4.500000e+00 1.200000e+01 0.000000e+00 
 5.250000e+00 1.200000e+01 0.000000e+00 
 6.000000e+00 1.200000e+01 0.000000e+00 
 6.750000e+00 1.200000e+01 0.000000e+00 
 7.500000e+00 1.200000e+01 0.000000e+00 
 8.250000e+00 1.200000e+01 0.000000e+00 
 9.000000e+00 1.200000e+01 0.000000e+00 
 9.750000e+00 1.200000e+01 0.000000e+00 
 1.050000e+01 1.200000e+01 0.000000e+00 
 1.125000e+01 1.200000e+01 0.000000e+00 
 1.200000e+01 1.200000e+01 0.000000e+00 
 1.275000e+01 1.200000e+01 0.000000e+00 
 1.350000e+01 1.200000e+01 0.000000e+00 
 1.425000e+01 1.200000e+01 0.000000e+00 
 1.500000e+01 1.200000e+01 0.000000e+00 
 1.575000e+01 1.200000e+01 0.000000e+00 
 1.650000e+01 1.200000e+01 0.000000e+00 
 1.725000e+01 1.200000e+01 0.000000e+00 
 1.800000e+01 1.200000e+01 0.000000e+00 
 1.875000e+01 1.200000e+01 0.000000e+00 
 1.950000e+01 1.200000e+01 0.000000e+00 
 2.025000e+01 1.200000e+01 0.000000e+00 
 2.100000e+01 1.200000e+01 0.000000e+00 
 2.175000e+01 1.200000e+01 0.000000e+00 
 2.250000e+01 1.200000e+01 0.000000e+00 
 2.325000e+01 1.200000e+01 0.000000e+00 
 2.400000e+01 1.200000e+01 0.000000e+00 
 2.475000e+01 1.200000e+01 0.000000e+00 
 2.550000e+01 1.200000e+01 0.000000e+00 
 2.625000e+01 1.200000e+01 0.000000e+00 
 2.700000e+01 1.200000e+01 0.000000e+00 
 2.775000e+01 1.200000e+01 0.000000e+00 
 2.850000e+01 1.200000e+01 0.000000e+00 
 2.925000e+01 1.200000e+01 0.000000e+00 
 7.500000e-01 1.275000e+01 0.000000e+00 
 1.500000e+00 1.275000e+01 0.000000e+00 
 2.250000e+00 1.275000e+01 0.000000e+00 
 3.000000e+00 1.275000e+01 0.000000e+00 
 3.750000e+00 1.275000e+01 0.000000e+00 
 4.500000e+00 1.275000e+01 0.000000e+00 
 5.250000e+00 1.275000e+01 0.000000e+00 
 6.000000e+00 1.275000e+01 0.000000e+00 
 6.750000e+00 1.275000e+01 0.000000e+00 
 7.500000e+00 1.275000e+01 0.000000e+00 
 8.250000e+00 1.275000e+01 0.000000e+00 
 9.000000e+00 1.275000e+01 0.000000e+00 
 9.750000e+00 1.275000e+01 0.000000e+00 
 1.050000e+01 1.275000e+01 0.000000e+00 
 1.125000e+01 1.275000e+01 0.000000e+00 
 1.200000e+01 1.275000e+01 0.000000e+00 
 1.275000e+01 1.275000e+01 0.000000e+00 
 1.350000e+01 1.275000e+01 0.000000e+00 
 1.425000e+01 1.275000e+01 0.000000e+00 
 1.500000e+01 1.275000e+01 0.000000e+00 
 1.575000e+01 1.275000e+01 0.000000e+00 
 1.650000e+01 1.275000e+01 0.000000e+00 
 1.725000e+01 1.275000e+01 0.000000e+00 
 1.800000e+01 1.275000e+01 0.000000e+00 
 1.875000e+01 1.275000e+01 0.000000e+00 
 1.950000e+01 1.275000e+01 0.000000e+00 
 2.025000e+01 1.275000e+01 0.000000e+00 
 2.100000e+01 1.275000e+01 0.000000e+00 
 2.175000e+01 1.275000e+01 0.000000e+00 
 2.250000e+01 1.275000e+01 0.000000e+00 
 2.325000e+01 1.275000e+01 0.000000e+00 
 2.400000e+01 1.275000e+01 0.000000e+00 
 2.475000e+01 1.275000e+01 0.000000e+00 
 2.550000e+01 1.275000e+01 0.000000e+00 
 2.625000e+01 1.275000e+01 0.000000e+00 
 2.700000e+01 1.275000e+01 0.000000e+00 
 2.775000e+01 1.275000e+01 0.000000e+00 
 2.850000e+01 1.275000e+01 0.000000e+00 
 2.925000e+01 1.275000e+01 0.000000e+00 
 7.500000e-01 1.350000e+01 0.000000e+00 
 1.500000e+00 1.350000e+01 0.000000e+00 
 2.250000e+00 1.350000e+01 0.000000e+00 
 3.000000e+00 1.350000e+01 0.000000e+00 
 3.750000e+00 1.350000e+01 0.000000e+00 
 4.500000e+00 1.350000e+01 0.000000e+00 
 5.250000e+00 1.350000e+01 0.000000e+00 
 6.000000e+00 1.350000e+01 0.000000e+00 
 6.750000e+00 1.350000e+01 0.000000e+00 
 7.500000e+00 1.350000e+01 0.000000e+00 
 8.250000e+00 1.350000e+01 0.000000e+00 
 9.000000e+00 1.350000e+01 0.000000e+00 
 9.750000e+00 1.350000e+01 0.000000e+00 
 1.050000e+01 1.350000e+01 0.000000e+00 
 1.125000e+01 1.350000e+01 0.000000e+00 
 1.200000e+01 1.350000e+01 0.000000e+00 
 1.275000e+01 1.350000e+01 0.000000e+00 
 1.350000e+01 1.350000e+01 0.000000e+00 
 1.425000e+01 1.350000e+01 0.000000e+00 
 1.500000e+01 1.350000e+01 0.000000e+00 
 1.575000e+01 1.350000e+01 0.000000e+00 
 1.650000e+01 1.350000e+01 0.000000e+00 
 1.725000e+01 1.350000e+01 0.000000e+00 
 1.800000e+01 1.350000e+01 0.000000e+00 
 1.875000e+01 1.350000e+01 0.000000e+00 
 1.950000e+01 1.350000e+01 0.000000e+00 
 2.025000e+01 1.350000e+01 0.000000e+00 
 2.100000e+01 1.350000e+01 0.000000e+00 
 2.175000e+01 1.350000e+01 0.000000e+00 
 2.250000e+01 1.350000e+01 0.000000e+00 
 2.325000e+01 1.350000e+01 0.000000e+00 
 2.400000e+01 1.350000e+01 0.000000e+00 
 2.475000e+01 1.350000e+01 0.000000e+00 
 2.550000e+01 1.350000e+01 0.000000e+00 
 2.625000e+01 1.350000e+01 0.000000e+00 
 2.700000e+01 1.350000e+01 0.000000e+00 
 2.775000e+01 1.350000e+01 0.000000e+00 
 2.850000e+01 1.350000e+01 0.000000e+00 
 2.925000e+01 1.350000e+01 0.000000e+00 
 7.500000e-01 1.425000e+01 0.000000e+00 
 1.500000e+00 1.425000e+01 0.000000e+00 
 2.250000e+00 1.425000e+01 0.000000e+00 
 3.000000e+00 1.425000e+01 0.000000e+00 
 3.750000e+00 1.425000e+01 0.000000e+00 
 4.500000e+00 1.425000e+01 0.000000e+00 
 5.250000e+00 1.425000e+01 0.000000e+00 
 6.000000e+00 1.425000e+01 0.000000e+00 
 6.750000e+00 1.425000e+01 0.000000e+00 
 7.500000e+00 1.425000e+01 0.000000e+00 
 8.250000e+00 1.425000e+01 0.000000e+00 
 9.000000e+00 1.425000e+01 0.000000e+00 
 9.750000e+00 1.425000e+01 0.000000e+00 
 1.050000e+01 1.425000e+01 0.000000e+00 
 1.125000e+01 1.425000e+01 0.000000e+00 
 1.200000e+01 1.425000e+01 0.000000e+00 
 1.275000e+01 1.425000e+01 0.000000e+00 
 1.350000e+01 1.425000e+01 0.000000e+00 
 1.425000e+01 1.425000e+01 0.000000e+00 
 1.500000e+01 1.425000e+01 0.000000e+00 
 1.575000e+01 1.425000e+01 0.000000e+00 
 1.650000e+01 1.425000e+01 0.000000e+00 
 1.725000e+01 1.425000e+01 0.000000e+00 
 1.800000e+01 1.425000e+01 0.000000e+00 
 1.875000e+01 1.425000e+01 0.000000e+00 
 1.950000e+01 1.425000e+01 0.000000e+00 
 2.025000e+01 1.425000e+01 0.000000e+00 
 2.100000e+01 1.425000e+01 0.000000e+00 
 2.175000e+01 1.425000e+01 0.000000e+00 
 2.250000e+01 1.425000e+01 0.000000e+00 
 2.325000e+01 1.425000e+01 0.000000e+00 
 2.400000e+01 1.425000e+01 0.000000e+00 
 2.475000e+01 1.425000e+01 0.000000e+00 
 2.550000e+01 1.425000e+01 0.000000e+00 
 2.625000e+01 1.425000e+01 0.000000e+00 
 2.700000e+01 1.425000e+01 0.000000e+00 
 2.775000e+01 1.425000e+01 0.000000e+00 
 2.850000e+01 1.425000e+01 0.000000e+00 
 2.925000e+01 1.425000e+01 0.000000e+00 
 7.500000e-01 1.500000e+01 0.000000e+00 
 1.500000e+00 1.500000e+01 0.000000e+00 
 2.250000e+00 1.500000e+01 0.000000e+00 
 3.000000e+00 1.500000e+01 0.000000e+00 
 3.750000e+00 1.500000e+01 0.000000e+00 
 4.500000e+00 1.500000e+01 0.000000e+00 
 5.250000e+00 1.500000e+01 0.000000e+00 
 6.000000e+00 1.500000e+01 0.000000e+00 
 6.750000e+00 1.500000e+01 0.000000e+00 
 7.500000e+00 1.500000e+01 0.000000e+00 
 8.250000e+00 1.500000e+01 0.000000e+00 
 9.000000e+00 1.500000e+01 0.000000e+00 
 9.750000e+00 1.500000e+01 0.000000e+00 
 1.050000e+01 1.500000e+01 0.000000e+00 
 1.125000e+01 1.500000e+01 0.000000e+00 
 1.200000e+01 1.500000e+01 0.000000e+00 
 1.275000e+01 1.500000e+01 0.000000e+00 
 1.350000e+01 1.500000e+01 0.000000e+00 
 1.425000e+01 1.500000e+01 0.000000e+00 
 1.500000e+01 1.500000e+01 0.000000e+00 
 1.575000e+01 1.500000e+01 0.000000e+00 
 1.650000e+01 1.500000e+01 0.000000e+00 
 1.725000e+01 1.500000e+01 0.000000e+00 
 1.800000e+01 1.500000e+01 0.000000e+00 
 1.875000e+01 1.500000e+01 0.000000e+00 
 1.950000e+01 1.500000e+01 0.000000e+00 
 2.025000e+01 1.500000e+01 0.000000e+00 
 2.100000e+01 1.500000e+01 0.000000e+00 
 2.175000e+01 1.500000e+01 0.000000e+00 
 2.250000e+01 1.500000e+01 0.000000e+00 
 2.325000e+01 1.500000e+01 0.000000e+00 
 2.400000e+01 1.500000e+01 0.000000e+00 
 2.475000e+01 1.500000e+01 0.000000e+00 
 2.550000e+01 1.500000e+01 0.000000e+00 
 2.625000e+01 1.500000e+01 0.000000e+00 
 2.700000e+01 1.500000e+01 0.000000e+00 
 2.775000e+01 1.500000e+01 0.000000e+00 
 2.850000e+01 1.500000e+01 0.000000e+00 
 2.925000e+01 1.500000e+01 0.000000e+00 
 7.500000e-01 1.575000e+01 0.000000e+00 
 1.500000e+00 1.575000e+01 0.000000e+00 
 2.250000e+00 1.575000e+01 0.000000e+00 
 3.000000e+00 1.575000e+01 0.000000e+00 
 3.750000e+00 1.575000e+01 0.000000e+00 
 4.500000e+00 1.575000e+01 0.000000e+00 
 5.250000e+00 1.575000e+01 0.000000e+00 
 6.000000e+00 1.575000e+01 0.000000e+00 
 6.750000e+00 1.575000e+01 0.000000e+00 
 7.500000e+00 1.575000e+01 0.000000e+00 
 8.250000e+00 1.575000e+01 0.000000e+00 
 9.000000e+00 1.575000e+01 0.000000e+00 
 9.750000e+00 1.575000e+01 0.000000e+00 
 1.050000e+01 1.575000e+01 0.000000e+00 
 1.125000e+01 1.575000e+01 0.000000e+00 
 1.200000e+01 1.575000e+01 0.000000e+00 
 1.275000e+01 1.575000e+01 0.000000e+00 
 1.350000e+01 1.575000e+01 0.000000e+00 
 1.425000e+01 1.575000e+01 0.000000e+00 
 1.500000e+01 1.575000e+01 0.000000e+00 
 1.575000e+01 1.575000e+01 0.000000e+00 
 1.650000e+01 1.575000e+01 0.000000e+00 
 1.725000e+01 1.575000e+01 0.000000e+00 
 1.800000e+01 1.575000e+01 0.000000e+00 
 1.875000e+01 1.575000e+01 0.000000e+00 
 1.950000e+01 1.575000e+01 0.000000e+00 
 2.025000e+01 1.575000e+01 0.000000e+00 
 2.100000e+01 1.575000e+01 0.000000e+00 
 2.175000e+01 1.575000e+01 0.000000e+00 
 2.250000e+01 1.575000e+01 0.000000e+00 
 2.325000e+01 1.575000e+01 0.000000e+00 
 2.400000e+01 1.575000e+01 0.000000e+00 
 2.475000e+01 1.575000e+01 0.000000e+00 
 2.550000e+01 1.575000e+01 0.000000e+00 
 2.625000e+01 1.575000e+01 0.000000e+00 
 2.700000e+01 1.575000e+01 0.000000e+00 
 2.775000e+01 1.575000e+01 0.000000e+00 
 2.850000e+01 1.575000e+01 0.000000e+00 
 2.925000e+01 1.575000e+01 0.000000e+00 
 7.500000e-01 1.650000e+01 0.000000e+00 
 1.500000e+00 1.650000e+01 0.000000e+00 
 2.250000e+00 1.650000e+01 0.000000e+00 
 3.000000e+00 1.650000e+01 0.000000e+00 
 3.750000e+00 1.650000e+01 0.000000e+00 
 4.500000e+00 1.650000e+01 0.000000e+00 
 5.250000e+00 1.650000e+01 0.000000e+00 
 6.000000e+00 1.650000e+01 0.000000e+00 
 6.750000e+00 1.650000e+01 0.000000e+00 
 7.500000e+00 1.650000e+01 0.000000e+00 
 8.250000e+00 1.650000e+01 0.000000e+00 
 9.000000e+00 1.650000e+01 0.000000e+00 
 9.750000e+00 1.650000e+01 0.000000e+00 
 1.050000e+01 1.650000e+01 0.000000e+00 
 1.125000e+01 1.650000e+01 0.000000e+00 
 1.200000e+01 1.650000e+01 0.000000e+00 
 1.275000e+01 1.650000e+01 0.000000e+00 
 1.350000e+01 1.650000e+01 0.000000e+00 
 1.425000e+01 1.650000e+01 0.000000e+00 
 1.500000e+01 1.650000e+01 0.000000e+00 
 1.575000e+01 1.650000e+01 0.000000e+00 
 1.650000e+01 1.650000e+01 0.000000e+00 
 1.725000e+01 1.650000e+01 0.000000e+00 
 1.800000e+01 1.650000e+01 0.000000e+00 
 1.875000e+01 1.650000e+01 0.000000e+00 
 1.950000e+01 1.650000e+01 0.000000e+00 
 2.025000e+01 1.650000e+01 0.000000e+00 
 2.100000e+01 1.650000e+01 0.000000e+00 
 2.175000e+01 1.650000e+01 0.000000e+00 
 2.250000e+01 1.650000e+01 0.000000e+00 
 2.325000e+01 1.650000e+01 0.000000e+00 
 2.400000e+01 1.650000e+01 0.000000e+00 
 2.475000e+01 1.650000e+01 0.000000e+00 
 2.550000e+01 1.650000e+01 0.000000e+00 
 2.625000e+01 1.650000e+01 0.000000e+00 
 2.700000e+01 1.650000e+01 0.000000e+00 
 2.775000e+01 1.650000e+01 0.000000e+00 
 2.850000e+01 1.650000e+01 0.000000e+00 
 2.925000e+01 1.650000e+01 0.000000e+00 
 7.500000e-01 1.725000e+01 0.000000e+00 
 1.500000e+00 1.725000e+01 0.000000e+00 
 2.250000e+00 1.725000e+01 0.000000e+00 
 3.000000e+00 1.725000e+01 0.000000e+00 
 3.750000e+00 1.725000e+01 0.000000e+00 
 4.500000e+00 1.725000e+01 0.000000e+00 
 5.250000e+00 1.725000e+01 0.000000e+00 
 6.000000e+00 1.725000e+01 0.000000e+00 
 6.750000e+00 1.725000e+01 0.000000e+00 
 7.500000e+00 1.725000e+01 0.000000e+00 
 8.250000e+00 1.725000e+01 0.000000e+00 
 9.000000e+00 1.725000e+01 0.000000e+00 
 9.750000e+00 1.725000e+01 0.000000e+00 
 1.050000e+01 1.725000e+01 0.000000e+00 
 1.125000e+01 1.725000e+01 0.000000e+00 
 1.200000e+01 1.725000e+01 0.000000e+00 
 1.275000e+01 1.725000e+01 0.000000e+00 
 1.350000e+01 1.725000e+01 0.000000e+00 
 1.425000e+01 1.725000e+01 0.000000e+00 
 1.500000e+01 1.725000e+01 0.000000e+00 
 1.575000e+01 1.725000e+01 0.000000e+00 
 1.650000e+01 1.725000e+01 0.000000e+00 
 1.725000e+01 1.725000e+01 0.000000e+00 
 1.800000e+01 1.725000e+01 0.000000e+00 
 1.875000e+01 1.725000e+01 0.000000e+00 
 1.950000e+01 1.725000e+01 0.000000e+00 
 2.025000e+01 1.725000e+01 0.000000e+00 
 2.100000e+01 1.725000e+01 0.000000e+00 
 2.175000e+01 1.725000e+01 0.000000e+00 
 2.250000e+01 1.725000e+01 0.000000e+00 
 2.325000e+01 1.725000e+01 0.000000e+00 
 2.400000e+01 1.725000e+01 0.000000e+00 
 2.475000e+01 1.725000e+01 0.000000e+00 
 2.550000e+01 1.725000e+01 0.000000e+00 
 2.625000e+01 1.725000e+01 0.000000e+00 
 2.700000e+01 1.725000e+01 0.000000e+00 
 2.775000e+01 1.725000e+01 0.000000e+00 
 2.850000e+01 1.725000e+01 0.000000e+00 
 2.925000e+01 1.725000e+01 0.000000e+00 
 7.500000e-01 1.800000e+01 0.000000e+00 
 1.500000e+00 1.800000e+01 0.000000e+00 
 2.250000e+00 1.800000e+01 0.000000e+00 
 3.000000e+00 1.800000e+01 0.000000e+00 
 3.750000e+00 1.800000e+01 0.000000e+00 
 4.500000e+00 1.800000e+01 0.000000e+00 
 5.250000e+00 1.800000e+01 0.000000e+00 
 6.000000e+00 1.800000e+01 0.000000e+00 
 6.750000e+00 1.800000e+01 0.000000e+00 
 7.500000e+00 1.800000e+01 0.000000e+00 
 8.250000e+00 1.800000e+01 0.000000e+00 
 9.000000e+00 1.800000e+01 0.000000e+00 
 9.750000e+00 1.800000e+01 0.000000e+00 
 1.050000e+01 1.800000e+01 0.000000e+00 
 1.125000e+01 1.800000e+01 0.000000e+00 
 1.200000e+01 1.800000e+01 0.000000e+00 
 1.275000e+01 1.800000e+01 0.000000e+00 
 1.350000e+01 1.800000e+01 0.000000e+00 
 1.425000e+01 1.800000e+01 0.000000e+00 
 1.500000e+01 1.800000e+01 0.000000e+00 
 1.575000e+01 1.800000e+01 0.000000e+00 
 1.650000e+01 1.800000e+01 0.000000e+00 
 1.725000e+01 1.800000e+01 0.000000e+00 
 1.800000e+01 1.800000e+01 0.000000e+00 
 1.875000e+01 1.800000e+01 0.000000e+00 
 1.950000e+01 1.800000e+01 0.000000e+00 
 2.025000e+01 1.800000e+01 0.000000e+00 
 2.100000e+01 1.800000e+01 0.000000e+00 
 2.175000e+01 1.800000e+01 0.000000e+00 
 2.250000e+01 1.800000e+01 0.000000e+00 
 2.325000e+01 1.800000e+01 0.000000e+00 
 2.400000e+01 1.800000e+01 0.000000e+00 
 2.475000e+01 1.800000e+01 0.000000e+00 
 2.550000e+01 1.800000e+01 0.000000e+00 
 2.625000e+01 1.800000e+01 0.000000e+00 
 2.700000e+01 1.800000e+01 0.000000e+00 
 2.775000e+01 1.800000e+01 0.000000e+00 
 2.850000e+01 1.800000e+01 0.000000e+00 
 2.925000e+01 1.800000e+01 0.000000e+00 
 7.500000e-01 1.875000e+01 0.000000e+00 
 1.500000e+00 1.875000e+01 0.000000e+00 
 2.250000e+00 1.875000e+01 0.000000e+00 
 3.000000e+00 1.875000e+01 0.000000e+00 
 3.750000e+00 1.875000e+01 0.000000e+00 
 4.500000e+00 1.875000e+01 0.000000e+00 
 5.250000e+00 1.875000e+01 0.000000e+00 
 6.000000e+00 1.875000e+01 0.000000e+00 
 6.750000e+00 1.875000e+01 0.000000e+00 
 7.500000e+00 1.875000e+01 0.000000e+00 
 8.250000e+00 1.875000e+01 0.000000e+00 
 9.000000e+00 1.875000e+01 0.000000e+00 
 9.750000e+00 1.875000e+01 0.000000e+00 
 1.050000e+01 1.875000e+01 0.000000e+00 
 1.125000e+01 1.875000e+01 0.000000e+00 
 1.200000e+01 1.875000e+01 0.000000e+00 
 1.275000e+01 1.875000e+01 0.000000e+00 
 1.350000e+01 1.875000e+01 0.000000e+00 
 1.425000e+01 1.875000e+01 0.000000e+00 
 1.500000e+01 1.875000e+01 0.000000e+00 
 1.575000e+01 1.875000e+01 0.000000e+00 
 1.650000e+01 1.875000e+01 0.000000e+00 
 1.725000e+01 1.875000e+01 0.000000e+00 
 1.800000e+01 1.875000e+01 0.000000e+00 
 1.875000e+01 1.875000e+01 0.000000e+00 
 1.950000e+01 1.875000e+01 0.000000e+00 
 2.025000e+01 1.875000e+01 0.000000e+00 
 2.100000e+01 1.875000e+01 0.000000e+00 
 2.175000e+01 1.875000e+01 0.000000e+00 
 2.250000e+01 1.875000e+01 0.000000e+00 
 2.325000e+01 1.875000e+01 0.000000e+00 
 2.400000e+01 1.875000e+01 0.000000e+00 
 2.475000e+01 1.875000e+01 0.000000e+00 
 2.550000e+01 1.875000e+01 0.000000e+00 
 2.625000e+01 1.875000e+01 0.000000e+00 
 2.700000e+01 1.875000e+01 0.000000e+00 
 2.775000e+01 1.875000e+01 0.000000e+00 
 2.850000e+01 1.875000e+01 0.000000e+00 
 2.925000e+01 1.875000e+01 0.000000e+00 
 7.500000e-01 1.950000e+01 0.000000e+00 
 1.500000e+00 1.950000e+01 0.000000e+00 
 2.250000e+00 1.950000e+01 0.000000e+00 
 3.000000e+00 1.950000e+01 0.000000e+00 
 3.750000e+00 1.950000e+01 0.000000e+00 
 4.500000e+00 1.950000e+01 0.000000e+00 
 5.250000e+00 1.950000e+01 0.000000e+00 
 6.000000e+00 1.950000e+01 0.000000e+00 
 6.750000e+00 1.950000e+01 0.000000e+00 
 7.500000e+00 1.950000e+01 0.000000e+00 
 8.250000e+00 1.950000e+01 0.000000e+00 
 9.000000e+00 1.950000e+01 0.000000e+00 
 9.750000e+00 1.950000e+01 0.000000e+00 
 1.050000e+01 1.950000e+01 0.000000e+00 
 1.125000e+01 1.950000e+01 0.000000e+00 
 1.200000e+01 1.950000e+01 0.000000e+00 
 1.275000e+01 1.950000e+01 0.000000e+00 
 1.350000e+01 1.950000e+01 0.000000e+00 
 1.425000e+01 1.950000e+01 0.000000e+00 
 1.500000e+01 1.950000e+01 0.000000e+00 
 1.575000e+01 1.950000e+01 0.000000e+00 
 1.650000e+01 1.950000e+01 0.000000e+00 
 1.725000e+01 1.950000e+01 0.000000e+00 
 1.800000e+01 1.950000e+01 0.000000e+00 
 1.875000e+01 1.950000e+01 0.000000e+00 
 1.950000e+01 1.950000e+01 0.000000e+00 
 2.025000e+01 1.950000e+01 0.000000e+00 
 2.100000e+01 1.950000e+01 0.000000e+00 
 2.175000e+01 1.950000e+01 0.000000e+00 
 2.250000e+01 1.950000e+01 0.000000e+00 
 2.325000e+01 1.950000e+01 0.000000e+00 
 2.400000e+01 1.950000e+01 0.000000e+00 
 2.475000e+01 1.950000e+01 0.000000e+00 
 2.550000e+01 1.950000e+01 0.000000e+00 
 2.625000e+01 1.950000e+01 0.000000e+00 
 2.700000e+01 1.950000e+01 0.000000e+00 
 2.775000e+01 1.950000e+01 0.000000e+00 
 2.850000e+01 1.950000e+01 0.000000e+00 
 2.925000e+01 1.950000e+01 0.000000e+00 
 7.500000e-01 2.025000e+01 0.000000e+00 
 1.500000e+00 2.025000e+01 0.000000e+00 
 2.250000e+00 2.025000e+01 0.000000e+00 
 3.000000e+00 2.025000e+01 0.000000e+00 
 3.750000e+00 2.025000e+01 0.000000e+00 
 4.500000e+00 2.025000e+01 0.000000e+00 
 5.250000e+00 2.025000e+01 0.000000e+00 
 6.000000e+00 2.025000e+01 0.000000e+00 
 6.750000e+00 2.025000e+01 0.000000e+00 
 7.500000e+00 2.025000e+01 0.000000e+00 
 8.250000e+00 2.025000e+01 0.000000e+00 
 9.000000e+00 2.025000e+01 0.000000e+00 
 9.750000e+00 2.025000e+01 0.000000e+00 
 1.050000e+01 2.025000e+01 0.000000e+00 
 1.125000e+01 2.025000e+01 0.000000e+00 
 1.200000e+01 2.025000e+01 0.000000e+00 
 1.275000e+01 2.025000e+01 0.000000e+00 
 1.350000e+01 2.025000e+01 0.000000e+00 
 1.425000e+01 2.025000e+01 0.000000e+00 
 1.500000e+01 2.025000e+01 0.000000e+00 
 1.575000e+01 2.025000e+01 0.000000e+00 
 1.650000e+01 2.025000e+01 0.000000e+00 
 1.725000e+01 2.025000e+01 0.000000e+00 
 1.800000e+01 2.025000e+01 0.000000e+00 
 1.875000e+01 2.025000e+01 0.000000e+00 
 1.950000e+01 2.025000e+01 0.000000e+00 
 2.025000e+01 2.025000e+01 0.000000e+00 
 2.100000e+01 2.025000e+01 0.000000e+00 
 2.175000e+01 2.025000e+01 0.000000e+00 
 2.250000e+01 2.025000e+01 0.000000e+00 
 2.325000e+01 2.025000e+01 0.000000e+00 
 2.400000e+01 2.025000e+01 0.000000e+00 
 2.475000e+01 2.025000e+01 0.000000e+00 
 2.550000e+01 2.025000e+01 0.000000e+00 
 2.625000e+01 2.025000e+01 0.000000e+00 
 2.700000e+01 2.025000e+01 0.000000e+00 
 2.775000e+01 2.025000e+01 0.000000e+00 
 2.850000e+01 2.025000e+01 0.000000e+00 
 2.925000e+01 2.025000e+01 0.000000e+00 
 7.500000e-01 2.100000e+01 0.000000e+00 
 1.500000e+00 2.100000e+01 0.000000e+00 
 2.250000e+00 2.100000e+01 0.000000e+00 
 3.000000e+00 2.100000e+01 0.000000e+00 
 3.750000e+00 2.100000e+01 0.000000e+00 
 4.500000e+00 2.100000e+01 0.000000e+00 
 5.250000e+00 2.100000e+01 0.000000e+00 
 6.000000e+00 2.100000e+01 0.000000e+00 
 6.750000e+00 2.100000e+01 0.000000e+00 
 7.500000e+00 2.100000e+01 0.000000e+00 
 8.250000e+00 2.100000e+01 0.000000e+00 
 9.000000e+00 2.100000e+01 0.000000e+00 
 9.750000e+00 2.100000e+01 0.000000e+00 
 1.050000e+01 2.100000e+01 0.000000e+00 
 1.125000e+01 2.100000e+01 0.000000e+00 
 1.200000e+01 2.100000e+01 0.000000e+00 
 1.275000e+01 2.100000e+01 0.000000e+00 
 1.350000e+01 2.100000e+01 0.000000e+00 
 1.425000e+01 2.100000e+01 0.000000e+00 
 1.500000e+01 2.100000e+01 0.000000e+00 
 1.575000e+01 2.100000e+01 0.000000e+00 
 1.650000e+01 2.100000e+01 0.000000e+00 
 1.725000e+01 2.100000e+01 0.000000e+00 
 1.800000e+01 2.100000e+01 0.000000e+00 
 1.875000e+01 2.100000e+01 0.000000e+00 
 1.950000e+01 2.100000e+01 0.000000e+00 
 2.025000e+01 2.100000e+01 0.000000e+00 
 2.100000e+01 2.100000e+01 0.000000e+00 
 2.175000e+01 2.100000e+01 0.000000e+00 
 2.250000e+01 2.100000e+01 0.000000e+00 
 2.325000e+01 2.100000e+01 0.000000e+00 
 2.400000e+01 2.100000e+01 0.000000e+00 
 2.475000e+01 2.100000e+01 0.000000e+00 
 2.550000e+01 2.100000e+01 0.000000e+00 
 2.625000e+01 2.100000e+01 0.000000e+00 
 2.700000e+01 2.100000e+01 0.000000e+00 
 2.775000e+01 2.100000e+01 0.000000e+00 
 2.850000e+01 2.100000e+01 0.000000e+00 
 2.925000e+01 2.100000e+01 0.000000e+00 
 7.500000e-01 2.175000e+01 0.000000e+00 
 1.500000e+00 2.175000e+01 0.000000e+00 
 2.250000e+00 2.175000e+01 0.000000e+00 
 3.000000e+00 2.175000e+01 0.000000e+00 
 3.750000e+00 2.175000e+01 0.000000e+00 
 4.500000e+00 2.175000e+01 0.000000e+00 
 5.250000e+00 2.175000e+01 0.000000e+00 
 6.000000e+00 2.175000e+01 0.000000e+00 
 6.750000e+00 2.175000e+01 0.000000e+00 
 7.500000e+00 2.175000e+01 0.000000e+00 
 8.250000e+00 2.175000e+01 0.000000e+00 
 9.000000e+00 2.175000e+01 0.000000e+00 
 9.750000e+00 2.175000e+01 0.000000e+00 
 1.050000e+01 2.175000e+01 0.000000e+00 
 1.125000e+01 2.175000e+01 0.000000e+00 
 1.200000e+01 2.175000e+01 0.000000e+00 
 1.275000e+01 2.175000e+01 0.000000e+00 
 1.350000e+01 2.175000e+01 0.000000e+00 
 1.425000e+01 2.175000e+01 0.000000e+00 
 1.500000e+01 2.175000e+01 0.000000e+00 
 1.575000e+01 2.175000e+01 0.000000e+00 
 1.650000e+01 2.175000e+01 0.000000e+00 
 1.725000e+01 2.175000e+01 0.000000e+00 
 1.800000e+01 2.175000e+01 0.000000e+00 
 1.875000e+01 2.175000e+01 0.000000e+00 
 1.950000e+01 2.175000e+01 0.000000e+00 
 2.025000e+01 2.175000e+01 0.000000e+00 
 2.100000e+01 2.175000e+01 0.000000e+00 
 2.175000e+01 2.175000e+01 0.000000e+00 
 2.250000e+01 2.175000e+01 0.000000e+00 
 2.325000e+01 2.175000e+01 0.000000e+00 
 2.400000e+01 2.175000e+01 0.000000e+00 
 2.475000e+01 2.175000e+01 0.000000e+00 
 2.550000e+01 2.175000e+01 0.000000e+00 
 2.625000e+01 2.175000e+01 0.000000e+00 
 2.700000e+01 2.175000e+01 0.000000e+00 
 2.775000e+01 2.175000e+01 0.000000e+00 
 2.850000e+01 2.175000e+01 0.000000e+00 
 2.925000e+01 2.175000e+01 0.000000e+00 
 7.500000e-01 2.250000e+01 0.000000e+00 
 1.500000e+00 2.250000e+01 0.000000e+00 
 2.250000e+00 2.250000e+01 0.000000e+00 
 3.000000e+00 2.250000e+01 0.000000e+00 
 3.750000e+00 2.250000e+01 0.000000e+00 
 4.500000e+00 2.250000e+01 0.000000e+00 
 5.250000e+00 2.250000e+01 0.000000e+00 
 6.000000e+00 2.250000e+01 0.000000e+00 
 6.750000e+00 2.250000e+01 0.000000e+00 
 7.500000e+00 2.250000e+01 0.000000e+00 
 8.250000e+00 2.250000e+01 0.000000e+00 
 9.000000e+00 2.250000e+01 0.000000e+00 
 9.750000e+00 2.250000e+01 0.000000e+00 
 1.050000e+01 2.250000e+01 0.000000e+00 
 1.125000e+01 2.250000e+01 0.000000e+00 
 1.200000e+01 2.250000e+01 0.000000e+00 
 1.275000e+01 2.250000e+01 0.000000e+00 
 1.350000e+01 2.250000e+01 0.000000e+00 
 1.425000e+01 2.250000e+01 0.000000e+00 
 1.500000e+01 2.250000e+01 0.000000e+00 
 1.575000e+01 2.250000e+01 0.000000e+00 
 1.650000e+01 2.250000e+01 0.000000e+00 
 1.725000e+01 2.250000e+01 0.000000e+00 
 1.800000e+01 2.250000e+01 0.000000e+00 
 1.875000e+01 2.250000e+01 0.000000e+00 
 1.950000e+01 2.250000e+01 0.000000e+00 
 2.025000e+01 2.250000e+01 0.000000e+00 
 2.100000e+01 2.250000e+01 0.000000e+00 
 2.175000e+01 2.250000e+01 0.000000e+00 
 2.250000e+01 2.250000e+01 0.000000e+00 
 2.325000e+01 2.250000e+01 0.000000e+00 
 2.400000e+01 2.250000e+01 0.000000e+00 
 2.475000e+01 2.250000e+01 0.000000e+00 
 2.550000e+01 2.250000e+01 0.000000e+00 
 2.625000e+01 2.250000e+01 0.000000e+00 
 2.700000e+01 2.250000e+01 0.000000e+00 
 2.775000e+01 2.250000e+01 0.000000e+00 
 2.850000e+01 2.250000e+01 0.000000e+00 
 2.925000e+01 2.250000e+01 0.000000e+00 
 7.500000e-01 2.325000e+01 0.000000e+00 
 1.500000e+00 2.325000e+01 0.000000e+00 
 2.250000e+00 2.325000e+01 0.000000e+00 
 3.000000e+00 2.325000e+01 0.000000e+00 
 3.750000e+00 2.325000e+01 0.000000e+00 
 4.500000e+00 2.325000e+01 0.000000e+00 
 5.250000e+00 2.325000e+01 0.000000e+00 
 6.000000e+00 2.325000e+01 0.000000e+00 
 6.750000e+00 2.325000e+01 0.000000e+00 
 7.500000e+00 2.325000e+01 0.000000e+00 
 8.250000e+00 2.325000e+01 0.000000e+00 
 9.000000e+00 2.325000e+01 0.000000e+00 
 9.750000e+00 2.325000e+01 0.000000e+00 
 1.050000e+01 2.325000e+01 0.000000e+00 
 1.125000e+01 2.325000e+01 0.000000e+00 
 1.200000e+01 2.325000e+01 0.000000e+00 
 1.275000e+01 2.325000e+01 0.000000e+00 
 1.350000e+01 2.325000e+01 0.000000e+00 
 1.425000e+01 2.325000e+01 0.000000e+00 
 1.500000e+01 2.325000e+01 0.000000e+00 
 1.575000e+01 2.325000e+01 0.000000e+00 
 1.650000e+01 2.325000e+01 0.000000e+00 
 1.725000e+01 2.325000e+01 0.000000e+00 
 1.800000e+01 2.325000e+01 0.000000e+00 
 1.875000e+01 2.325000e+01 0.000000e+00 
 1.950000e+01 2.325000e+01 0.000000e+00 
 2.025000e+01 2.325000e+01 0.000000e+00 
 2.100000e+01 2.325000e+01 0.000000e+00 
 2.175000e+01 2.325000e+01 0.000000e+00 
 2.250000e+01 2.325000e+01 0.000000e+00 
 2.325000e+01 2.325000e+01 0.000000e+00 
 2.400000e+01 2.325000e+01 0.000000e+00 
 2.475000e+01 2.325000e+01 0.000000e+00 
 2.550000e+01 2.325000e+01 0.000000e+00 
 2.625000e+01 2.325000e+01 0.000000e+00 
 2.700000e+01 2.325000e+01 0.000000e+00 
 2.775000e+01 2.325000e+01 0.000000e+00 
 2.850000e+01 2.325000e+01 0.000000e+00 
 2.925000e+01 2.325000e+01 0.000000e+00 
 7.500000e-01 2.400000e+01 0.000000e+00 
 1.500000e+00 2.400000e+01 0.000000e+00 
 2.250000e+00 2.400000e+01 0.000000e+00 
 3.000000e+00 2.400000e+01 0.000000e+00 
 3.750000e+00 2.400000e+01 0.000000e+00 
 4.500000e+00 2.400000e+01 0.000000e+00 
 5.250000e+00 2.400000e+01 0.000000e+00 
 6.000000e+00 2.400000e+01 0.000000e+00 
 6.750000e+00 2.400000e+01 0.000000e+00 
 7.500000e+00 2.400000e+01 0.000000e+00 
 8.250000e+00 2.400000e+01 0.000000e+00 
 9.000000e+00 2.400000e+01 0.000000e+00 
 9.750000e+00 2.400000e+01 0.000000e+00 
 1.050000e+01 2.400000e+01 0.000000e+00 
 1.125000e+01 2.400000e+01 0.000000e+00 
 1.200000e+01 2.400000e+01 0.000000e+00 
 1.275000e+01 2.400000e+01 0.000000e+00 
 1.350000e+01 2.400000e+01 0.000000e+00 
 1.425000e+01 2.400000e+01 0.000000e+00 
 1.500000e+01 2.400000e+01 0.000000e+00 
 1.575000e+01 2.400000e+01 0.000000e+00 
 1.650000e+01 2.400000e+01 0.000000e+00 
 1.725000e+01 2.400000e+01 0.000000e+00 
 1.800000e+01 2.400000e+01 0.000000e+00 
 1.875000e+01 2.400000e+01 0.000000e+00 
 1.950000e+01 2.400000e+01 0.000000e+00 
 2.025000e+01 2.400000e+01 0.000000e+00 
 2.100000e+01 2.400000e+01 0.000000e+00 
 2.175000e+01 2.400000e+01 0.000000e+00 
 2.250000e+01 2.400000e+01 0.000000e+00 
 2.325000e+01 2.400000e+01 0.000000e+00 
 2.400000e+01 2.400000e+01 0.000000e+00 
 2.475000e+01 2.400000e+01 0.000000e+00 
 2.550000e+01 2.400000e+01 0.000000e+00 
 2.625000e+01 2.400000e+01 0.000000e+00 
 2.700000e+01 2.400000e+01 0.000000e+00 
 2.775000e+01 2.400000e+01 0.000000e+00 
 2.850000e+01 2.400000e+01 0.000000e+00 
 2.925000e+01 2.400000e+01 0.000000e+00 
 7.500000e-01 2.475000e+01 0.000000e+00 
 1.500000e+00 2.475000e+01 0.000000e+00 
 2.250000e+00 2.475000e+01 0.000000e+00 
 3.000000e+00 2.475000e+01 0.000000e+00 
 3.750000e+00 2.475000e+01 0.000000e+00 
 4.500000e+00 2.475000e+01 0.000000e+00 
 5.250000e+00 2.475000e+01 0.000000e+00 
 6.000000e+00 2.475000e+01 0.000000e+00 
 6.750000e+00 2.475000e+01 0.000000e+00 
 7.500000e+00 2.475000e+01 0.000000e+00 
 8.250000e+00 2.475000e+01 0.000000e+00 
 9.000000e+00 2.475000e+01 0.000000e+00 
 9.750000e+00 2.475000e+01 0.000000e+00 
 1.050000e+01 2.475000e+01 0.000000e+00 
 1.125000e+01 2.475000e+01 0.000000e+00 
 1.200000e+01 2.475000e+01 0.000000e+00 
 1.275000e+01 2.475000e+01 0.000000e+00 
 1.350000e+01 2.475000e+01 0.000000e+00 
 1.425000e+01 2.475000e+01 0.000000e+00 
 1.500000e+01 2.475000e+01 0.000000e+00 
 1.575000e+01 2.475000e+01 0.000000e+00 
 1.650000e+01 2.475000e+01 0.000000e+00 
 1.725000e+01 2.475000e+01 0.000000e+00 
 1.800000e+01 2.475000e+01 0.000000e+00 
 1.875000e+01 2.475000e+01 0.000000e+00 
 1.950000e+01 2.475000e+01 0.000000e+00 
 2.025000e+01 2.475000e+01 0.000000e+00 
 2.100000e+01 2.475000e+01 0.000000e+00 
 2.175000e+01 2.475000e+01 0.000000e+00 
 2.250000e+01 2.475000e+01 0.000000e+00 
 2.325000e+01 2.475000e+01 0.000000e+00 
 2.400000e+01 2.475000e+01 0.000000e+00 
 2.475000e+01 2.475000e+01 0.000000e+00 
 2.550000e+01 2.475000e+01 0.000000e+00 
 2.625000e+01 2.475000e+01 0.000000e+00 
 2.700000e+01 2.475000e+01 0.000000e+00 
 2.775000e+01 2.475000e+01 0.000000e+00 
 2.850000e+01 2.475000e+01 0.000000e+00 
 2.925000e+01 2.475000e+01 0.000000e+00 
 7.500000e-01 2.550000e+01 0.000000e+00 
 1.500000e+00 2.550000e+01 0.000000e+00 
 2.250000e+00 2.550000e+01 0.000000e+00 
 3.000000e+00 2.550000e+01 0.000000e+00 
 3.750000e+00 2.550000e+01 0.000000e+00 
 4.500000e+00 2.550000e+01 0.000000e+00 
 5.250000e+00 2.550000e+01 0.000000e+00 
 6.000000e+00 2.550000e+01 0.000000e+00 
 6.750000e+00 2.550000e+01 0.000000e+00 
 7.500000e+00 2.550000e+01 0.000000e+00 
 8.250000e+00 2.550000e+01 0.000000e+00 
 9.000000e+00 2.550000e+01 0.000000e+00 
 9.750000e+00 2.550000e+01 0.000000e+00 
 1.050000e+01 2.550000e+01 0.000000e+00 
 1.125000e+01 2.550000e+01 0.000000e+00 
 1.200000e+01 2.550000e+01 0.000000e+00 
 1.275000e+01 2.550000e+01 0.000000e+00 
 1.350000e+01 2.550000e+01 0.000000e+00 
 1.425000e+01 2.550000e+01 0.000000e+00 
 1.500000e+01 2.550000e+01 0.000000e+00 
 1.575000e+01 2.550000e+01 0.000000e+00 
 1.650000e+01 2.550000e+01 0.000000e+00 
 1.725000e+01 2.550000e+01 0.000000e+00 
 1.800000e+01 2.550000e+01 0.000000e+00 
 1.875000e+01 2.550000e+01 0.000000e+00 
 1.950000e+01 2.550000e+01 0.000000e+00 
 2.025000e+01 2.550000e+01 0.000000e+00 
 2.100000e+01 2.550000e+01 0.000000e+00 
 2.175000e+01 2.550000e+01 0.000000e+00 
 2.250000e+01 2.550000e+01 0.000000e+00 
 2.325000e+01 2.550000e+01 0.000000e+00 
 2.400000e+01 2.550000e+01 0.000000e+00 
 2.475000e+01 2.550000e+01 0.000000e+00 
 2.550000e+01 2.550000e+01 0.000000e+00 
 2.625000e+01 2.550000e+01 0.000000e+00 
 2.700000e+01 2.550000e+01 0.000000e+00 
 2.775000e+01 2.550000e+01 0.000000e+00 
 2.850000e+01 2.550000e+01 0.000000e+00 
 2.925000e+01 2.550000e+01 0.000000e+00 
 7.500000e-01 2.625000e+01 0.000000e+00 
 1.500000e+00 2.625000e+01 0.000000e+00 
 2.250000e+00 2.625000e+01 0.000000e+00 
 3.000000e+00 2.625000e+01 0.000000e+00 
 3.750000e+00 2.625000e+01 0.000000e+00 
 4.500000e+00 2.625000e+01 0.000000e+00 
 5.250000e+00 2.625000e+01 0.000000e+00 
 6.000000e+00 2.625000e+01 0.000000e+00 
 6.750000e+00 2.625000e+01 0.000000e+00 
 7.500000e+00 2.625000e+01 0.000000e+00 
 8.250000e+00 2.625000e+01 0.000000e+00 
 9.000000e+00 2.625000e+01 0.000000e+00 
 9.750000e+00 2.625000e+01 0.000000e+00 
 1.050000e+01 2.625000e+01 0.000000e+00 
 1.125000e+01 2.625000e+01 0.000000e+00 
 1.200000e+01 2.625000e+01 0.000000e+00 
 1.275000e+01 2.625000e+01 0.000000e+00 
 1.350000e+01 2.625000e+01 0.000000e+00 
 1.425000e+01 2.625000e+01 0.000000e+00 
 1.500000e+01 2.625000e+01 0.000000e+00 
 1.575000e+01 2.625000e+01 0.000000e+00 
 1.650000e+01 2.625000e+01 0.000000e+00 
 1.725000e+01 2.625000e+01 0.000000e+00 
 1.800000e+01 2.625000e+01 0.000000e+00 
 1.875000e+01 2.625000e+01 0.000000e+00 
 1.950000e+01 2.625000e+01 0.000000e+00 
 2.025000e+01 2.625000e+01 0.000000e+00 
 2.100000e+01 2.625000e+01 0.000000e+00 
 2.175000e+01 2.625000e+01 0.000000e+00 
 2.250000e+01 2.625000e+01 0.000000e+00 
 2.325000e+01 2.625000e+01 0.000000e+00 
 2.400000e+01 2.625000e+01 0.000000e+00 
 2.475000e+01 2.625000e+01 0.000000e+00 
 2.550000e+01 2.625000e+01 0.000000e+00 
 2.625000e+01 2.625000e+01 0.000000e+00 
 2.700000e+01 2.625000e+01 0.000000e+00 
 2.775000e+01 2.625000e+01 0.000000e+00 
 2.850000e+01 2.625000e+01 0.000000e+00 
 2.925000e+01 2.625000e+01 0.000000e+00 
 7.500000e-01 2.700000e+01 0.000000e+00 
 1.500000e+00 2.700000e+01 0.000000e+00 
 2.250000e+00 2.700000e+01 0.000000e+00 
 3.000000e+00 2.700000e+01 0.000000e+00 
 3.750000e+00 2.700000e+01 0.000000e+00 
 4.500000e+00 2.700000e+01 0.000000e+00 
 5.250000e+00 2.700000e+01 0.000000e+00 
 6.000000e+00 2.700000e+01 0.000000e+00 
 6.750000e+00 2.700000e+01 0.000000e+00 
 7.500000e+00 2.700000e+01 0.000000e+00 
 8.250000e+00 2.700000e+01 0.000000e+00 
 9.000000e+00 2.700000e+01 0.000000e+00 
 9.750000e+00 2.700000e+01 0.000000e+00 
 1.050000e+01 2.700000e+01 0.000000e+00 
 1.125000e+01 2.700000e+01 0.000000e+00 
 1.200000e+01 2.700000e+01 0.000000e+00 
 1.275000e+01 2.700000e+01 0.000000e+00 
 1.350000e+01 2.700000e+01 0.000000e+00 
 1.425000e+01 2.700000e+01 0.000000e+00 
 1.500000e+01 2.700000e+01 0.000000e+00 
 1.575000e+01 2.700000e+01 0.000000e+00 
 1.650000e+01 2.700000e+01 0.000000e+00 
 1.725000e+01 2.700000e+01 0.000000e+00 
 1.800000e+01 2.700000e+01 0.000000e+00 
 1.875000e+01 2.700000e+01 0.000000e+00 
 1.950000e+01 2.700000e+01 0.000000e+00 
 2.025000e+01 2.700000e+01 0.000000e+00 
 2.100000e+01 2.700000e+01 0.000000e+00 
 2.175000e+01 2.700000e+01 0.000000e+00 
 2.250000e+01 2.700000e+01 0.000000e+00 
 2.325000e+01 2.700000e+01 0.000000e+00 
 2.400000e+01 2.700000e+01 0.000000e+00 
 2.475000e+01 2.700000e+01 0.000000e+00 
 2.550000e+01 2.700000e+01 0.000000e+00 
 2.625000e+01 2.700000e+01 0.000000e+00 
 2.700000e+01 2.700000e+01 0.000000e+00 
 2.775000e+01 2.700000e+01 0.000000e+00 
 2.850000e+01 2.700000e+01 0.000000e+00 
 2.925000e+01 2.700000e+01 0.000000e+00 
 7.500000e-01 2.775000e+01 0.000000e+00 
 1.500000e+00 2.775000e+01 0.000000e+00 
 2.250000e+00 2.775000e+01 0.000000e+00 
 3.000000e+00 2.775000e+01 0.000000e+00 
 3.750000e+00 2.775000e+01 0.000000e+00 
 4.500000e+00 2.775000e+01 0.000000e+00 
 5.250000e+00 2.775000e+01 0.000000e+00 
 6.000000e+00 2.775000e+01 0.000000e+00 
 6.750000e+00 2.775000e+01 0.000000e+00 
 7.500000e+00 2.775000e+01 0.000000e+00 
 8.250000e+00 2.775000e+01 0.000000e+00 
 9.000000e+00 2.775000e+01 0.000000e+00 
 9.750000e+00 2.775000e+01 0.000000e+00 
 1.050000e+01 2.775000e+01 0.000000e+00 
 1.125000e+01 2.775000e+01 0.000000e+00 
 1.200000e+01 2.775000e+01 0.000000e+00 
 1.275000e+01 2.775000e+01 0.000000e+00 
 1.350000e+01 2.775000e+01 0.000000e+00 
 1.425000e+01 2.775000e+01 0.000000e+00 
 1.500000e+01 2.775000e+01 0.000000e+00 
 1.575000e+01 2.775000e+01 0.000000e+00 
 1.650000e+01 2.775000e+01 0.000000e+00 
 1.725000e+01 2.775000e+01 0.000000e+00 
 1.800000e+01 2.775000e+01 0.000000e+00 
 1.875000e+01 2.775000e+01 0.000000e+00 
 1.950000e+01 2.775000e+01 0.000000e+00 
 2.025000e+01 2.775000e+01 0.000000e+00 
 2.100000e+01 2.775000e+01 0.000000e+00 
 2.175000e+01 2.775000e+01 0.000000e+00 
 2.250000e+01 2.775000e+01 0.000000e+00 
 2.325000e+01 2.775000e+01 0.000000e+00 
 2.400000e+01 2.775000e+01 0.000000e+00 
 2.475000e+01 2.775000e+01 0.000000e+00 
 2.550000e+01 2.775000e+01 0.000000e+00 
 2.625000e+01 2.775000e+01 0.000000e+00 
 2.700000e+01 2.775000e+01 0.000000e+00 
 2.775000e+01 2.775000e+01 0.000000e+00 
 2.850000e+01 2.775000e+01 0.000000e+00 
 2.925000e+01 2.775000e+01 0.000000e+00 
 7.500000e-01 2.850000e+01 0.000000e+00 
 1.500000e+00 2.850000e+01 0.000000e+00 
 2.250000e+00 2.850000e+01 0.000000e+00 
 3.000000e+00 2.850000e+01 0.000000e+00 
 3.750000e+00 2.850000e+01 0.000000e+00 
 4.500000e+00 2.850000e+01 0.000000e+00 
 5.250000e+00 2.850000e+01 0.000000e+00 
 6.000000e+00 2.850000e+01 0.000000e+00 
 6.750000e+00 2.850000e+01 0.000000e+00 
 7.500000e+00 2.850000e+01 0.000000e+00 
 8.250000e+00 2.850000e+01 0.000000e+00 
 9.000000e+00 2.850000e+01 0.000000e+00 
 9.750000e+00 2.850000e+01 0.000000e+00 
 1.050000e+01 2.850000e+01 0.000000e+00 
 1.125000e+01 2.850000e+01 0.000000e+00 
 1.200000e+01 2.850000e+01 0.000000e+00 
 1.275000e+01 2.850000e+01 0.000000e+00 
 1.350000e+01 2.850000e+01 0.000000e+00 
 1.425000e+01 2.850000e+01 0.000000e+00 
 1.500000e+01 2.850000e+01 0.000000e+00 
 1.575000e+01 2.850000e+01 0.000000e+00 
 1.650000e+01 2.850000e+01 0.000000e+00 
 1.725000e+01 2.850000e+01 0.000000e+00 
 1.800000e+01 2.850000e+01 0.000000e+00 
 1.875000e+01 2.850000e+01 0.000000e+00 
 1.950000e+01 2.850000e+01 0.000000e+00 
 2.025000e+01 2.850000e+01 0.000000e+00 
 2.100000e+01 2.850000e+01 0.000000e+00 
 2.175000e+01 2.850000e+01 0.000000e+00 
 2.250000e+01 2.850000e+01 0.000000e+00 
 2.325000e+01 2.850000e+01 0.000000e+00 
 2.400000e+01 2.850000e+01 0.000000e+00 
 2.475000e+01 2.850000e+01 0.000000e+00 
 2.550000e+01 2.850000e+01 0.000000e+00 
 2.625000e+01 2.850000e+01 0.000000e+00 
 2.700000e+01 2.850000e+01 0.000000e+00 
 2.775000e+01 2.850000e+01 0.000000e+00 
 2.850000e+01 2.850000e+01 0.000000e+00 
 2.925000e+01 2.850000e+01 0.000000e+00 
 7.500000e-01 2.925000e+01 0.000000e+00 
 1.500000e+00 2.925000e+01 0.000000e+00 
 2.250000e+00 2.925000e+01 0.000000e+00 
 3.000000e+00 2.925000e+01 0.000000e+00 
 3.750000e+00 2.925000e+01 0.000000e+00 
 4.500000e+00 2.925000e+01 0.000000e+00 
 5.250000e+00 2.925000e+01 0.000000e+00 
 6.000000e+00 2.925000e+01 0.000000e+00 
 6.750000e+00 2.925000e+01 0.000000e+00 
 7.500000e+00 2.925000e+01 0.000000e+00 
 8.250000e+00 2.925000e+01 0.000000e+00 
 9.000000e+00 2.925000e+01 0.000000e+00 
 9.750000e+00 2.925000e+01 0.000000e+00 
 1.050000e+01 2.925000e+01 0.000000e+00 
 1.125000e+01 2.925000e+01 0.000000e+00 
 1.200000e+01 2.925000e+01 0.000000e+00 
 1.275000e+01 2.925000e+01 0.000000e+00 
 1.350000e+01 2.925000e+01 0.000000e+00 
 1.425000e+01 2.925000e+01 0.000000e+00 
 1.500000e+01 2.925000e+01 0.000000e+00 
 1.575000e+01 2.925000e+01 0.000000e+00 
 1.650000e+01 2.925000e+01 0.000000e+00 
 1.725000e+01 2.925000e+01 0.000000e+00 
 1.800000e+01 2.925000e+01 0.000000e+00 
 1.875000e+01 2.925000e+01 0.000000e+00 
 1.950000e+01 2.925000e+01 0.000000e+00 
 2.025000e+01 2.925000e+01 0.000000e+00 
 2.100000e+01 2.925000e+01 0.000000e+00 
 2.175000e+01 2.925000e+01 0.000000e+00 
 2.250000e+01 2.925000e+01 0.000000e+00 
 2.325000e+01 2.925000e+01 0.000000e+00 
 2.400000e+01 2.925000e+01 0.000000e+00 
 2.475000e+01 2.925000e+01 0.000000e+00 
 2.550000e+01 2.925000e+01 0.000000e+00 
 2.625000e+01 2.925000e+01 0.000000e+00 
 2.700000e+01 2.925000e+01 0.000000e+00 
 2.775000e+01 2.925000e+01 0.000000e+00 
 2.850000e+01 2.925000e+01 0.000000e+00 
 2.925000e+01 2.925000e+01 0.000000e+00 
 </DataArray>
</Points>
<Cells>
<DataArray type="Int32" Name="connectivity" NumberOfComponents="1" format="ascii">
0 121 160 120 
120 160 161 119 
119 161 162 118 
118 162 163 117 
117 163 164 116 
116 164 165 115 
115 165 166 114 
114 166 167 113 
113 167 168 112 
112 168 169 111 
111 169 170 110 
110 170 171 109 
109 171 172 108 
108 172 173 107 
107 173 174 106 
106 174 175 105 
105 175 176 104 
104 176 177 103 
103 177 178 102 
102 178 179 101 
101 179 180 100 
100 180 181 99 
99 181 182 98 
98 182 183 97 
97 183 184 96 
96 184 185 95 
95 185 186 94 
94 186 187 93 
93 187 188 92 
92 188 189 91 
91 189 190 90 
90 190 191 89 
89 191 192 88 
88 192 193 87 
87 193 194 86 
86 194 195 85 
85 195 196 84 
84 196 197 83 
83 197 198 82 
82 198 81 1 
121 122 199 160 
160 199 200 161 
161 200 201 162 
162 201 202 163 
163 202 203 164 
164 203 204 165 
165 204 205 166 
166 205 206 167 
167 206 207 168 
168 207 208 169 
169 208 209 170 
170 209 210 171 
171 210 211 172 
172 211 212 173 
173 212 213 174 
174 213 214 175 
175 214 215 176 
176 215 216 177 
177 216 217 178 
178 217 218 179 
179 218 219 180 
180 219 220 181 
181 220 221 182 
182 221 222 183 
183 222 223 184 
184 223 224 185 
185 224 225 186 
186 225 226 187 
187 226 227 188 
188 227 228 189 
189 228 229 190 
190 229 230 191 
191 230 231 192 
192 231 232 193 
193 232 233 194 
194 233 234 195 
195 234 235 196 
196 235 236 197 
197 236 237 198 
198 237 80 81 
122 123 238 199 
199 238 239 200 
200 239 240 201 
201 240 241 202 
202 241 242 203 
203 242 243 204 
204 243 244 205 
205 244 245 206 
206 245 246 207 
207 246 247 208 
208 247 248 209 
209 248 249 210 
210 249 250 211 
211 250 251 212 
212 251 252 213 
213 252 253 214 
214 253 254 215 
215 254 255 216 
216 255 256 217 
217 256 257 218 
218 257 258 219 
219 258 259 220 
220 259 260 221 
221 260 261 222 
222 261 262 223 
223 262 263 224 
224 263 264 225 
225 264 265 226 
226 265 266 227 
227 266 267 228 
228 267 268 229 
229 268 269 230 
230 269 270 231 
231 270 271 232 
232 271 272 233 
233 272 273 234 
234 273 274 235 
235 274 275 236 
236 275 276 237 
237 276 79 80 
123 124 277 238 
238 277 278 239 
239 278 279 240 
240 279 280 241 
241 280 281 242 
242 281 282 243 
243 282 283 244 
244 283 284 245 
245 284 285 246 
246 285 286 247 
247 286 287 248 
248 287 288 249 
249 288 289 250 
250 289 290 251 
251 290 291 252 
252 291 292 253 
253 292 293 254 
254 293 294 255 
255 294 295 256 
256 295 296 257 
257 296 297 258 
258 297 298 259 
259 298 299 260 
260 299 300 261 
261 300 301 262 
262 301 302 263 
263 302 303 264 
264 303 304 265 
265 304 305 266 
266 305 306 267 
267 306 307 268 
268 307 308 269 
269 308 309 270 
270 309 310 271 
271 310 311 272 
272 311 312 273 
273 312 313 274 
274 313 314 275 
275 314 315 276 
276 315 78 79 
124 125 316 277 
277 316 317 278 
278 317 318 279 
279 318 319 280 
280 319 320 281 
281 320 321 282 
282 321 322 283 
283 322 323 284 
284 323 324 285 
285 324 325 286 
286 325 326 287 
287 326 327 288 
288 327 328 289 
289 328 329 290 
290 329 330 291 
291 330 331 292 
292 331 332 293 
293 332 333 294 
294 333 334 295 
295 334 335 296 
296 335 336 297 
297 336 337 298 
298 337 338 299 
299 338 339 300 
300 339 340 301 
301 340 341 302 
302 341 342 303 
303 342 343 304 
304 343 344 305 
305 344 345 306 
306 345 346 307 
307 346 347 308 
308 347 348 309 
309 348 349 310 
310 349 350 311 
311 350 351 312 
312 351 352 313 
313 352 353 314 
314 353 354 315 
315 354 77 78 
125 126 355 316 
316 355 356 317 
317 356 357 318 
318 357 358 319 
319 358 359 320 
320 359 360 321 
321 360 361 322 
322 361 362 323 
323 362 363 324 
324 363 364 325 
325 364 365 326 
326 365 366 327 
327 366 367 328 
328 367 368 329 
329 368 369 330 
330 369 370 331 
331 370 371 332 
332 371 372 333 
333 372 373 334 
334 373 374 335 
335 374 375 336 
336 375 376 337 
337 376 377 338 
338 377 378 339 
339 378 379 340 
340 379 380 341 
341 380 381 342 
342 381 382 343 
343 382 383 344 
344 383 384 345 
345 384 385 346 
346 385 386 347 
347 386 387 348 
348 387 388 349 
349 388 389 350 
350 389 390 351 
351 390 391 352 
352 391 392 353 
353 392 393 354 
354 393 76 77 
126 127 394 355 
355 394 395 356 
356 395 396 357 
357 396 397 358 
358 397 398 359 
359 398 399 360 
360 399 400 361 
361 400 401 362 
362 401 402 363 
363 402 403 364 
364 403 404 365 
365 404 405 366 
366 405 406 367 
367 406 407 368 
368 407 408 369 
369 408 409 370 
370 409 410 371 
371 410 411 372 
372 411 412 373 
373 412 413 374 
374 413 414 375 
375 414 415 376 
376 415 416 377 
377 416 417 378 
378 417 418 379 
379 418 419 380 
380 419 420 381 
381 420 421 382 
382 421 422 383 
383 422 423 384 
384 423 424 385 
385 424 425 386 
386 425 426 387 
387 426 427 388 
388 427 428 389 
389 428 429 390 
390 429 430 391 
391 430 431 392 
392 431 432 393 
393 432 75 76 
127 128 433 394 
394 433 434 395 
395 434 435 396 
396 435 436 397 
397 436 437 398 
398 437 438 399 
399 438 439 400 
400 439 440 401 
401 440 441 402 
402 441 442 403 
403 442 443 404 
404 443 444 405 
405 444 445 406 
406 445 446 407 
407 446 447 408 
408 447 448 409 
409 448 449 410 
410 449 450 411 
411 450 451 412 
412 451 452 413 
413 452 453 414 
414 453 454 415 
415 454 455 416 
416 455 456 417 
417 456 457 418 
418 457 458 419 
419 458 459 420 
420 459 460 421 
421 460 461 422 
422 461 462 423 
423 462 463 424 
424 463 464 425 
425 464 465 426 
426 465 466 427 
427 466 467 428 
428 467 468 429 
429 468 469 430 
430 469 470 431 
431 470 471 432 
432 471 74 75 
128 129 472 433 
433 472 473 434 
434 473 474 435 
435 474 475 436 
436 475 476 437 
437 476 477 438 
438 477 478 439 
439 478 479 440 
440 479 480 441 
441 480 481 442 
442 481 482 443 
443 482 483 444 
444 483 484 445 
445 484 485 446 
446 485 486 447 
447 486 487 448 
448 487 488 449 
449 488 489 450 
450 489 490 451 
451 490 491 452 
452 491 492 453 
453 492 493 454 
454 493 494 455 
455 494 495 456 
456 495 496 457 
457 496 497 458 
458 497 498 459 
459 498 499 460 
460 499 500 461 
461 500 501 462 
462 501 502 463 
463 502 503 464 
464 503 504 465 
465 504 505 466 
466 505 506 467 
467 506 507 468 
468 507 508 469 
469 508 509 470 
470 509 510 471 
471 510 73 74 
129 130 511 472 
472 511 512 473 
473 512 513 474 
474 513 514 475 
475 514 515 476 
476 515 516 477 
477 516 517 478 
478 517 518 479 
479 518 519 480 
480 519 520 481 
481 520 521 482 
482 521 522 483 
483 522 523 484 
484 523 524 485 
485 524 525 486 
486 525 526 487 
487 526 527 488 
488 527 528 489 
489 528 529 490 
490 529 530 491 
491 530 531 492 
492 531 532 493 
493 532 533 494 
494 533 534 495 
495 534 535 496 
496 535 536 497 
497 536 537 498 
498 537 538 499 
499 538 539 500 
500 539 540 501 
501 540 541 502 
502 541 542 503 
503 542 543 504 
504 543 544 505 
505 544 545 506 
506 545 546 507 
507 546 547 508 
508 547 548 509 
509 548 549 510 
510 549 72 73 
130 131 550 511 
511 550 551 512 
512 551 552 513 
513 552 553 514 
514 553 554 515 
515 554 555 516 
516 555 556 517 
517 556 557 518 
518 557 558 519 
519 558 559 520 
520 559 560 521 
521 560 561 522 
522 561 562 523 
523 562 563 524 
524 563 564 525 
525 564 565 526 
526 565 566 527 
527 566 567 528 
528 567 568 529 
529 568 569 530 
530 569 570 531 
531 570 571 532 
532 571 572 533 
533 572 573 534 
534 573 574 535 
535 574 575 536 
536 575 576 537 
537 576 577 538 
538 577 578 539 
539 578 579 540 
540 579 580 541 
541 580 581 542 
542 581 582 543 
543 582 583 544 
544 583 584 545 
545 584 585 546 
546 585 586 547 
547 586 587 548 
548 587 588 549 
549 588 71 72 
131 132 589 550 
550 589 590 551 
551 590 591 552 
552 591 592 553 
553 592 593 554 
554 593 594 555 
555 594 595 556 
556 595 596 557 
557 596 597 558 
558 597 598 559 
559 598 599 560 
560 599 600 561 
561 600 601 562 
562 601 602 563 
563 602 603 564 
564 603 604 565 
565 604 605 566 
566 605 606 567 
567 606 607 568 
568 607 608 569 
569 608 609 570 
570 609 610 571 
571 610 611 572 
572 611 612 573 
573 612 613 574 
574 613 614 575 
575 614 615 576 
576 615 616 577 
577 616 617 578 
578 617 618 579 
579 618 619 580 
580 619 620 581 
581 620 621 582 
582 621 622 583 
583 622 623 584 
584 623 624 585 
585 624 625 586 
586 625 626 587 
587 626 627 588 
588 627 70 71 
132 133 628 589 
589 628 629 590 
590 629 630 591 
591 630 631 592 
592 631 632 593 
593 632 633 594 
594 633 634 595 
595 634 635 596 
596 635 636 597 
597 636 637 598 
598 637 638 599 
599 638 639 600 
600 639 640 601 
601 640 641 602 
602 641 642 603 
603 642 643 604 
604 643 644 605 
605 644 645 606 
606 645 646 607 
607 646 647 608 
608 647 648 609 
609 648 649 610 
610 649 650 611 
611 650 651 612 
612 651 652 613 
613 652 653 614 
614 653 654 615 
615 654 655 616 
616 655 656 617 
617 656 657 618 
618 657 658 619 
619 658 659 620 
620 659 660 621 
621 660 661 622 
622 661 662 623 
623 662 663 624 
624 663 664 625 
625 664 665 626 
626 665 666 627 
627 666 69 70 
133 134 667 628 
628 667 668 629 
629 668 669 630 
630 669 670 631 
631 670 671 632 
632 671 672 633 
633 672 673 634 
634 673 674 635 
635 674 675 636 
636 675 676 637 
637 676 677 638 
638 677 678 639 
639 678 679 640 
640 679 680 641 
641 680 681 642 
642 681 682 643 
643 682 683 644 
644 683 684 645 
645 684 685 646 
646 685 686 647 
647 686 687 648 
648 687 688 649 
649 688 689 650 
650 689 690 651 
651 690 691 652 
652 691 692 653 
653 692 693 654 
654 693 694 655 
655 694 695 656 
656 695 696 657 
657 696 697 658 
658 697 698 659 
659 698 699 660 
660 699 700 661 
661 700 701 662 
662 701 702 663 
663 702 703 664 
664 703 704 665 
665 704 705 666 
666 705 68 69 
134 135 706 667 
667 706 707 668 
668 707 708 669 
669 708 709 670 
670 709 710 671 
671 710 711 672 
672 711 712 673 
673 712 713 674 
674 713 714 675 
675 714 715 676 
676 715 716 677 
677 716 717 678 
678 717 718 679 
679 718 719 680 
680 719 720 681 
681 720 721 682 
682 721 722 683 
683 722 723 684 
684 723 724 685 
685 724 725 686 
686 725 726 687 
687 726 727 688 
688 727 728 689 
689 728 729 690 
690 729 730 691 
691 730 731 692 
692 731 732 693 
693 732 733 694 
694 733 734 695 
695 734 735 696 
696 735 736 697 
697 736 737 698 
698 737 738 699 
699 738 739 700 
700 739 740 701 
701 740 741 702 
702 741 742 703 
703 742 743 704 
704 743 744 705 
705 744 67 68 
135 136 745 706 
706 745 746 707 
707 746 747 708 
708 747 748 709 
709 748 749 710 
710 749 750 711 
711 750 751 712 
712 751 752 713 
713 752 753 714 
714 753 754 715 
715 754 755 716 
716 755 756 717 
717 756 757 718 
718 757 758 719 
719 758 759 720 
720 759 760 721 
721 760 761 722 
722 761 762 723 
723 762 763 724 
724 763 764 725 
725 764 765 726 
726 765 766 727 
727 766 767 728 
728 767 768 729 
729 768 769 730 
730 769 770 731 
731 770 771 732 
732 771 772 733 
733 772 773 734 
734 773 774 735 
735 774 775 736 
736 775 776 737 
737 776 777 738 
738 777 778 739 
739 778 779 740 
740 779 780 741 
741 780 781 742 
742 781 782 743 
743 782 783 744 
744 783 66 67 
136 137 784 745 
745 784 785 746 
746 785 786 747 
747 786 787 748 
748 787 788 749 
749 788 789 750 
750 789 790 751 
751 790 791 752 
752 791 792 753 
753 792 793 754 
754 793 794 755 
755 794 795 756 
756 795 796 757 
757 796 797 758 
758 797 798 759 
759 798 799 760 
760 799 800 761 
761 800 801 762 
762 801 802 763 
763 802 803 764 
764 803 804 765 
765 804 805 766 
766 805 806 767 
767 806 807 768 
768 807 808 769 
769 808 809 770 
770 809 810 771 
771 810 811 772 
772 811 812 773 
773 812 813 774 
774 813 814 775 
775 814 815 776 
776 815 816 777 
777 816 817 778 
778 817 818 779 
779 818 819 780 
780 819 820 781 
781 820 821 782 
782 821 822 783 
783 822 65 66 
137 138 823 784 
784 823 824 785 
785 824 825 786 
786 825 826 787 
787 826 827 788 
788 827 828 789 
789 828 829 790 
790 829 830 791 
791 830 831 792 
792 831 832 793 
793 832 833 794 
794 833 834 795 
795 834 835 796 
796 835 836 797 
797 836 837 798 
798 837 838 799 
799 838 839 800 
800 839 840 801 
801 840 841 802 
802 841 842 803 
803 842 843 804 
804 843 844 805 
805 844 845 806 
806 845 846 807 
807 846 847 808 
808 847 848 809 
809 848 849 810 
810 849 850 811 
811 850 851 812 
812 851 852 813 
813 852 853 814 
814 853 854 815 
815 854 855 816 
816 855 856 817 
817 856 857 818 
818 857 858 819 
819 858 859 820 
820 859 860 821 
821 860 861 822 
822 861 64 65 
138 139 862 823 
823 862 863 824 
824 863 864 825 
825 864 865 826 
826 865 866 827 
827 866 867 828 
828 867 868 829 
829 868 869 830 
830 869 870 831 
831 870 871 832 
832 871 872 833 
833 872 873 834 
834 873 874 835 
835 874 875 836 
836 875 876 837 
837 876 877 838 
838 877 878 839 
839 878 879 840 
840 879 880 841 
841 880 881 842 
842 881 882 843 
843 882 883 844 
844 883 884 845 
845 884 885 846 
846 885 886 847 
847 886 887 848 
848 887 888 849 
849 888 889 850 
850 889 890 851 
851 890 891 852 
852 891 892 853 
853 892 893 854 
854 893 894 855 
855 894 895 856 
856 895 896 857 
857 896 897 858 
858 897 898 859 
859 898 899 860 
860 899 900 861 
861 900 63 64 
139 140 901 862 
862 901 902 863 
863 902 903 864 
864 903 904 865 
865 904 905 866 
866 905 906 867 
867 906 907 868 
868 907 908 869 
869 908 909 870 
870 909 910 871 
871 910 911 872 
872 911 912 873 
873 912 913 874 
874 913 914 875 
875 914 915 876 
876 915 916 877 
877 916 917 878 
878 917 918 879 
879 918 919 880 
880 919 920 881 
881 920 921 882 
882 921 922 883 
883 922 923 884 
884 923 924 885 
885 924 925 886 
886 925 926 887 
887 926 927 888 
888 927 928 889 
889 928 929 890 
890 929 930 891 
891 930 931 892 
892 931 932 893 
893 932 933 894 
894 933 934 895 
895 934 935 896 
896 935 936 897 
897 936 937 898 
898 937 938 899 
899 938 939 900 
900 939 62 63 
140 141 940 901 
901 940 941 902 
902 941 942 903 
903 942 943 904 
904 943 944 905 
905 944 945 906 
906 945 946 907 
907 946 947 908 
908 947 948 909 
909 948 949 910 
910 949 950 911 
911 950 951 912 
912 951 952 913 
913 952 953 914 
914 953 954 915 
915 954 955 916 
916 955 956 917 
917 956 957 918 
918 957 958 919 
919 958 959 920 
920 959 960 921 
921 960 961 922 
922 961 962 923 
923 962 963 924 
924 963 964 925 
925 964 965 926 
926 965 966 927 
927 966 967 928 
928 967 968 929 
929 968 969 930 
930 969 970 931 
931 970 971 932 
932 971 972 933 
933 972 973 934 
934 973 974 935 
935 974 975 936 
936 975 976 937 
937 976 977 938 
938 977 978 939 
939 978 61 62 
141 142 979 940 
940 979 980 941 
941 980 981 942 
942 981 982 943 
943 982 983 944 
944 983 984 945 
945 984 985 946 
946 985 986 947 
947 986 987 948 
948 987 988 949 
949 988 989 950 
950 989 990 951 
951 990 991 952 
952 991 992 953 
953 992 993 954 
954 993 994 955 
955 994 995 956 
956 995 996 957 
957 996 997 958 
958 997 998 959 
959 998 999 960 
960 999 1000 961 
961 1000 1001 962 
962 1001 1002 963 
963 1002 1003 964 
964 1003 1004 965 
965 1004 1005 966 
966 1005 1006 967 
967 1006 1007 968 
968 1007 1008 969 
969 1008 1009 970 
970 1009 1010 971 
971 1010 1011 972 
972 1011 1012 973 
973 1012 1013 974 
974 1013 1014 975 
975 1014 1015 976 
976 1015 1016 977 
977 1016 1017 978 
978 1017 60 61 
142 143 1018 979 
979 1018 1019 980 
980 1019 1020 981 
981 1020 1021 982 
982 1021 1022 983 
983 1022 1023 984 
984 1023 1024 985 
985 1024 1025 986 
986 1025 1026 987 
987 1026 1027 988 
988 1027 1028 989 
989 1028 1029 990 
990 1029 1030 991 
991 1030 1031 992 
992 1031 1032 993 
993 1032 1033 994 
994 1033 1034 995 
995 1034 1035 996 
996 1035 1036 997 
997 1036 1037 998 
998 1037 1038 999 
999 1038 1039 1000 
1000 1039 1040 1001 
1001 1040 1041 1002 
1002 1041 1042 1003 
1003 1042 1043 1004 
1004 1043 1044 1005 
1005 1044 1045 1006 
1006 1045 1046 1007 
1007 1046 1047 1008 
1008 1047 1048 1009 
1009 1048 1049 1010 
1010 1049 1050 1011 
1011 1050 1051 1012 
1012 1051 1052 1013 
1013 1052 1053 1014 
1014 1053 1054 1015 
1015 1054 1055 1016 
1016 1055 1056 1017 
1017 1056 59 60 
143 144 1057 1018 
1018 1057 1058 1019 
1019 1058 1059 1020 
1020 1059 1060 1021 
1021 1060 1061 1022 
1022 1061 1062 1023 
1023 1062 1063 1024 
1024 1063 1064 1025 
1025 1064 1065 1026 
1026 1065 1066 1027 
1027 1066 1067 1028 
1028 1067 1068 1029 
1029 1068 1069 1030 
1030 1069 1070 1031 
1031 1070 1071 1032 
1032 1071 1072 1033 
1033 1072 1073 1034 
1034 1073 1074 1035 
1035 1074 1075 1036 
1036 1075 1076 1037 
1037 1076 1077 1038 
1038 1077 1078 1039 
1039 1078 1079 1040 
1040 1079 1080 1041 
1041 1080 1081 1042 
1042 1081 1082 1043 
1043 1082 1083 1044 
1044 1083 1084 1045 
1045 1084 1085 1046 
1046 1085 1086 1047 
1047 1086 1087 1048 
1048 1087 1088 1049 
1049 1088 1089 1050 
1050 1089 1090 1051 
1051 1090 1091 1052 
1052 1091 1092 1053 
1053 1092 1093 1054 
1054 1093 1094 1055 
1055 1094 1095 1056 
1056 1095 58 59 
144 145 1096 1057 
1057 1096 1097 1058 
1058 1097 1098 1059 
1059 1098 1099 1060 
1060 1099 1100 1061 
1061 1100 1101 1062 
1062 1101 1102 1063 
1063 1102 1103 1064 
1064 1103 1104 1065 
1065 1104 1105 1066 
1066 1105 1106 1067 
1067 1106 1107 1068 
1068 1107 1108 1069 
1069 1108 1109 1070 
1070 1109 1110 1071 
1071 1110 1111 1072 
1072 1111 1112 1073 
1073 1112 1113 1074 
1074 1113 1114 1075 
1075 1114 1115 1076 
1076 1115 1116 1077 
1077 1116 1117 1078 
1078 1117 1118 1079 
1079 1118 1119 1080 
1080 1119 1120 1081 
1081 1120 1121 1082 
1082 1121 1122 1083 
1083 1122 1123 1084 
1084 1123 1124 1085 
1085 1124 1125 1086 
1086 1125 1126 1087 
1087 1126 1127 1088 
1088 1127 1128 1089 
1089 1128 1129 1090 
1090 1129 1130 1091 
1091 1130 1131 1092 
1092 1131 1132 1093 
1093 1132 1133 1094 
1094 1133 1134 1095 
1095 1134 57 58 
145 146 1135 1096 
1096 1135 1136 1097 
1097 1136 1137 1098 
1098 1137 1138 1099 
1099 1138 1139 1100 
1100 1139 1140 1101 
1101 1140 1141 1102 
1102 1141 1142 1103 
1103 1142 1143 1104 
1104 1143 1144 1105 
1105 1144 1145 1106 
1106 1145 1146 1107 
1107 1146 1147 1108 
1108 1147 1148 1109 
1109 1148 1149 1110 
1110 1149 1150 1111 
1111 1150 1151 1112 
1112 1151 1152 1113 
1113 1152 1153 1114 
1114 1153 1154 1115 
1115 1154 1155 1116 
1116 1155 1156 1117 
1117 1156 1157 1118 
1118 1157 1158 1119 
1119 1158 1159 1120 
1120 1159 1160 1121 
1121 1160 1161 1122 
1122 1161 1162 1123 
1123 1162 1163 1124 
1124 1163 1164 1125 
1125 1164 1165 1126 
1126 1165 1166 1127 
1127 1166 1167 1128 
1128 1167 1168 1129 
1129 1168 1169 1130 
1130 1169 1170 1131 
1131 1170 1171 1132 
1132 1171 1172 1133 
1133 1172 1173 1134 
1134 1173 56 57 
146 147 1174 1135 
1135 1174 1175 1136 
1136 1175 1176 1137 
1137 1176 1177 1138 
1138 1177 1178 1139 
1139 1178 1179 1140 
1140 1179 1180 1141 
1141 1180 1181 1142 
1142 1181 1182 1143 
1143 1182 1183 1144 
1144 1183 1184 1145 
1145 1184 1185 1146 
1146 1185 1186 1147 
1147 1186 1187 1148 
1148 1187 1188 1149 
1149 1188 1189 1150 
1150 1189 1190 1151 
1151 1190 1191 1152 
1152 1191 1192 1153 
1153 1192 1193 1154 
1154 1193 1194 1155 
1155 1194 1195 1156 
1156 1195 1196 1157 
1157 1196 1197 1158 
1158 1197 1198 1159 
1159 1198 1199 1160 
1160 1199 1200 1161 
1161 1200 1201 1162 
1162 1201 1202 1163 
1163 1202 1203 1164 
1164 1203 1204 1165 
1165 1204 1205 1166 
1166 1205 1206 1167 
1167 1206 1207 1168 
1168 1207 1208 1169 
1169 1208 1209 1170 
1170 1209 1210 1171 
1171 1210 1211 1172 
1172 1211 1212 1173 
1173 1212 55 56 
147 148 1213 1174 
1174 1213 1214 1175 
1175 1214 1215 1176 
1176 1215 1216 1177 
1177 1216 1217 1178 
1178 1217 1218 1179 
1179 1218 1219 1180 
1180 1219 1220 1181 
1181 1220 1221 1182 
1182 1221 1222 1183 
1183 1222 1223 1184 
1184 1223 1224 1185 
1185 1224 1225 1186 
1186 1225 1226 1187 
1187 1226 1227 1188 
1188 1227 1228 1189 
1189 1228 1229 1190 
1190 1229 1230 1191 
1191 1230 1231 1192 
1192 1231 1232 1193 
1193 1232 1233 1194 
1194 1233 1234 1195 
1195 1234 1235 1196 
1196 1235 1236 1197 
1197 1236 1237 1198 
1198 1237 1238 1199 
1199 1238 1239 1200 
1200 1239 1240 1201 
1201 1240 1241 1202 
1202 1241 1242 1203 
1203 1242 1243 1204 
1204 1243 1244 1205 
1205 1244 1245 1206 
1206 1245 1246 1207 
1207 1246 1247 1208 
1208 1247 1248 1209 
1209 1248 1249 1210 
1210 1249 1250 1211 
1211 1250 1251 1212 
1212 1251 54 55 
148 149 1252 1213 
1213 1252 1253 1214 
1214 1253 1254 1215 
1215 1254 1255 1216 
1216 1255 1256 1217 
1217 1256 1257 1218 
1218 1257 1258 1219 
1219 1258 1259 1220 
1220 1259 1260 1221 
1221 1260 1261 1222 
1222 1261 1262 1223 
1223 1262 1263 1224 
1224 1263 1264 1225 
1225 1264 1265 1226 
1226 1265 1266 1227 
1227 1266 1267 1228 
1228 1267 1268 1229 
1229 1268 1269 1230 
1230 1269 1270 1231 
1231 1270 1271 1232 
1232 1271 1272 1233 
1233 1272 1273 1234 
1234 1273 1274 1235 
1235 1274 1275 1236 
1236 1275 1276 1237 
1237 1276 1277 1238 
1238 1277 1278 1239 
1239 1278 1279 1240 
1240 1279 1280 1241 
1241 1280 1281 1242 
1242 1281 1282 1243 
1243 1282 1283 1244 
1244 1283 1284 1245 
1245 1284 1285 1246 
1246 1285 1286 1247 
1247 1286 1287 1248 
1248 1287 1288 1249 
1249 1288 1289 1250 
1250 1289 1290 1251 
1251 1290 53 54 
149 150 1291 1252 
1252 1291 1292 1253 
1253 1292 1293 1254 
1254 1293 1294 1255 
1255 1294 1295 1256 
1256 1295 1296 1257 
1257 1296 1297 1258 
1258 1297 1298 1259 
1259 1298 1299 1260 
1260 1299 1300 1261 
1261 1300 1301 1262 
1262 1301 1302 1263 
1263 1302 1303 1264 
1264 1303 1304 1265 
1265 1304 1305 1266 
1266 1305 1306 1267 
1267 1306 1307 1268 
1268 1307 1308 1269 
1269 1308 1309 1270 
1270 1309 1310 1271 
1271 1310 1311 1272 
1272 1311 1312 1273 
1273 1312 1313 1274 
1274 1313 1314 1275 
1275 1314 1315 1276 
1276 1315 1316 1277 
1277 1316 1317 1278 
1278 1317 1318 1279 
1279 1318 1319 1280 
1280 1319 1320 1281 
1281 1320 1321 1282 
1282 1321 1322 1283 
1283 1322 1323 1284 
1284 1323 1324 1285 
1285 1324 1325 1286 
1286 1325 1326 1287 
1287 1326 1327 1288 
1288 1327 1328 1289 
1289 1328 1329 1290 
1290 1329 52 53 
150 151 1330 1291 
1291 1330 1331 1292 
1292 1331 1332 1293 
1293 1332 1333 1294 
1294 1333 1334 1295 
1295 1334 1335 1296 
1296 1335 1336 1297 
1297 1336 1337 1298 
1298 1337 1338 1299 
1299 1338 1339 1300 
1300 1339 1340 1301 
1301 1340 1341 1302 
1302 1341 1342 1303 
1303 1342 1343 1304 
1304 1343 1344 1305 
1305 1344 1345 1306 
1306 1345 1346 1307 
1307 1346 1347 1308 
1308 1347 1348 1309 
1309 1348 1349 1310 
1310 1349 1350 1311 
1311 1350 1351 1312 
1312 1351 1352 1313 
1313 1352 1353 1314 
1314 1353 1354 1315 
1315 1354 1355 1316 
1316 1355 1356 1317 
1317 1356 1357 1318 
1318 1357 1358 1319 
1319 1358 1359 1320 
1320 1359 1360 1321 
1321 1360 1361 1322 
1322 1361 1362 1323 
1323 1362 1363 1324 
1324 1363 1364 1325 
1325 1364 1365 1326 
1326 1365 1366 1327 
1327 1366 1367 1328 
1328 1367 1368 1329 
1329 1368 51 52 
151 152 1369 1330 
1330 1369 1370 1331 
1331 1370 1371 1332 
1332 1371 1372 1333 
1333 1372 1373 1334 
1334 1373 1374 1335 
1335 1374 1375 1336 
1336 1375 1376 1337 
1337 1376 1377 1338 
1338 1377 1378 1339 
1339 1378 1379 1340 
1340 1379 1380 1341 
1341 1380 1381 1342 
1342 1381 1382 1343 
1343 1382 1383 1344 
1344 1383 1384 1345 
1345 1384 1385 1346 
1346 1385 1386 1347 
1347 1386 1387 1348 
1348 1387 1388 1349 
1349 1388 1389 1350 
1350 1389 1390 1351 
1351 1390 1391 1352 
1352 1391 1392 1353 
1353 1392 1393 1354 
1354 1393 1394 1355 
1355 1394 1395 1356 
1356 1395 1396 1357 
1357 1396 1397 1358 
1358 1397 1398 1359 
1359 1398 1399 1360 
1360 1399 1400 1361 
1361 1400 1401 1362 
1362 1401 1402 1363 
1363 1402 1403 1364 
1364 1403 1404 1365 
1365 1404 1405 1366 
1366 1405 1406 1367 
1367 1406 1407 1368 
1368 1407 50 51 
152 153 1408 1369 
1369 1408 1409 1370 
1370 1409 1410 1371 
1371 1410 1411 1372 
1372 1411 1412 1373 
1373 1412 1413 1374 
1374 1413 1414 1375 
1375 1414 1415 1376 
1376 1415 1416 1377 
1377 1416 1417 1378 
1378 1417 1418 1379 
1379 1418 1419 1380 
1380 1419 1420 1381 
1381 1420 1421 1382 
1382 1421 1422 1383 
1383 1422 1423 1384 
1384 1423 1424 1385 
1385 1424 1425 1386 
1386 1425 1426 1387 
1387 1426 1427 1388 
1388 1427 1428 1389 
1389 1428 1429 1390 
1390 1429 1430 1391 
1391 1430 1431 1392 
1392 1431 1432 1393 
1393 1432 1433 1394 
1394 1433 1434 1395 
1395 1434 1435 1396 
1396 1435 1436 1397 
1397 1436 1437 1398 
1398 1437 1438 1399 
1399 1438 1439 1400 
1400 1439 1440 1401 
1401 1440 1441 1402 
1402 1441 1442 1403 
1403 1442 1443 1404 
1404 1443 1444 1405 
1405 1444 1445 1406 
1406 1445 1446 1407 
1407 1446 49 50 
153 154 1447 1408 
1408 1447 1448 1409 
1409 1448 1449 1410 
1410 1449 1450 1411 
1411 1450 1451 1412 
1412 1451 1452 1413 
1413 1452 1453 1414 
1414 1453 1454 1415 
1415 1454 1455 1416 
1416 1455 1456 1417 
1417 1456 1457 1418 
1418 1457 1458 1419 
1419 1458 1459 1420 
1420 1459 1460 1421 
1421 1460 1461 1422 
1422 1461 1462 1423 
1423 1462 1463 1424 
1424 1463 1464 1425 
1425 1464 1465 1426 
1426 1465 1466 1427 
1427 1466 1467 1428 
1428 1467 1468 1429 
1429 1468 1469 1430 
1430 1469 1470 1431 
1431 1470 1471 1432 
1432 1471 1472 1433 
1433 1472 1473 1434 
1434 1473 1474 1435 
1435 1474 1475 1436 
1436 1475 1476 1437 
1437 1476 1477 1438 
1438 1477 1478 1439 
1439 1478 1479 1440 
1440 1479 1480 1441 
1441 1480 1481 1442 
1442 1481 1482 1443 
1443 1482 1483 1444 
1444 1483 1484 1445 
1445 1484 1485 1446 
1446 1485 48 49 
154 155 1486 1447 
1447 1486 1487 1448 
1448 1487 1488 1449 
1449 1488 1489 1450 
1450 1489 1490 1451 
1451 1490 1491 1452 
1452 1491 1492 1453 
1453 1492 1493 1454 
1454 1493 1494 1455 
1455 1494 1495 1456 
1456 1495 1496 1457 
1457 1496 1497 1458 
1458 1497 1498 1459 
1459 1498 1499 1460 
1460 1499 1500 1461 
1461 1500 1501 1462 
1462 1501 1502 1463 
1463 1502 1503 1464 
1464 1503 1504 1465 
1465 1504 1505 1466 
1466 1505 1506 1467 
1467 1506 1507 1468 
1468 1507 1508 1469 
1469 1508 1509 1470 
1470 1509 1510 1471 
1471 1510 1511 1472 
1472 1511 1512 1473 
1473 1512 1513 1474 
1474 1513 1514 1475 
1475 1514 1515 1476 
1476 1515 1516 1477 
1477 1516 1517 1478 
1478 1517 1518 1479 
1479 1518 1519 1480 
1480 1519 1520 1481 
1481 1520 1521 1482 
1482 1521 1522 1483 
1483 1522 1523 1484 
1484 1523 1524 1485 
1485 1524 47 48 
155 156 1525 1486 
1486 1525 1526 1487 
1487 1526 1527 1488 
1488 1527 1528 1489 
1489 1528 1529 1490 
1490 1529 1530 1491 
1491 1530 1531 1492 
1492 1531 1532 1493 
1493 1532 1533 1494 
1494 1533 1534 1495 
1495 1534 1535 1496 
1496 1535 1536 1497 
1497 1536 1537 1498 
1498 1537 1538 1499 
1499 1538 1539 1500 
1500 1539 1540 1501 
1501 1540 1541 1502 
1502 1541 1542 1503 
1503 1542 1543 1504 
1504 1543 1544 1505 
1505 1544 1545 1506 
1506 1545 1546 1507 
1507 1546 1547 1508 
1508 1547 1548 1509 
1509 1548 1549 1510 
1510 1549 1550 1511 
1511 1550 1551 1512 
1512 1551 1552 1513 
1513 1552 1553 1514 
1514 1553 1554 1515 
1515 1554 1555 1516 
1516 1555 1556 1517 
1517 1556 1557 1518 
1518 1557 1558 1519 
1519 1558 1559 1520 
1520 1559 1560 1521 
1521 1560 1561 1522 
1522 1561 1562 1523 
1523 1562 1563 1524 
1524 1563 46 47 
156 157 1564 1525 
1525 1564 1565 1526 
1526 1565 1566 1527 
1527 1566 1567 1528 
1528 1567 1568 1529 
1529 1568 1569 1530 
1530 1569 1570 1531 
1531 1570 1571 1532 
1532 1571 1572 1533 
1533 1572 1573 1534 
1534 1573 1574 1535 
1535 1574 1575 1536 
1536 1575 1576 1537 
1537 1576 1577 1538 
1538 1577 1578 1539 
1539 1578 1579 1540 
1540 1579 1580 1541 
1541 1580 1581 1542 
1542 1581 1582 1543 
1543 1582 1583 1544 
1544 1583 1584 1545 
1545 1584 1585 1546 
1546 1585 1586 1547 
1547 1586 1587 1548 
1548 1587 1588 1549 
1549 1588 1589 1550 
1550 1589 1590 1551 
1551 1590 1591 1552 
1552 1591 1592 1553 
1553 1592 1593 1554 
1554 1593 1594 1555 
1555 1594 1595 1556 
1556 1595 1596 1557 
1557 1596 1597 1558 
1558 1597 1598 1559 
1559 1598 1599 1560 
1560 1599 1600 1561 
1561 1600 1601 1562 
1562 1601 1602 1563 
1563 1602 45 46 
157 158 1603 1564 
1564 1603 1604 1565 
1565 1604 1605 1566 
1566 1605 1606 1567 
1567 1606 1607 1568 
1568 1607 1608 1569 
1569 1608 1609 1570 
1570 1609 1610 1571 
1571 1610 1611 1572 
1572 1611 1612 1573 
1573 1612 1613 1574 
1574 1613 1614 1575 
1575 1614 1615 1576 
1576 1615 1616 1577 
1577 1616 1617 1578 
1578 1617 1618 1579 
1579 1618 1619 1580 
1580 1619 1620 1581 
1581 1620 1621 1582 
1582 1621 1622 1583 
1583 1622 1623 1584 
1584 1623 1624 1585 
1585 1624 1625 1586 
1586 1625 1626 1587 
1587 1626 1627 1588 
1588 1627 1628 1589 
1589 1628 1629 1590 
1590 1629 1630 1591 
1591 1630 1631 1592 
1592 1631 1632 1593 
1593 1632 1633 1594 
1594 1633 1634 1595 
1595 1634 1635 1596 
1596 1635 1636 1597 
1597 1636 1637 1598 
1598 1637 1638 1599 
1599 1638 1639 1600 
1600 1639 1640 1601 
1601 1640 1641 1602 
1602 1641 44 45 
158 159 1642 1603 
1603 1642 1643 1604 
1604 1643 1644 1605 
1605 1644 1645 1606 
1606 1645 1646 1607 
1607 1646 1647 1608 
1608 1647 1648 1609 
1609 1648 1649 1610 
1610 1649 1650 1611 
1611 1650 1651 1612 
1612 1651 1652 1613 
1613 1652 1653 1614 
1614 1653 1654 1615 
1615 1654 1655 1616 
1616 1655 1656 1617 
1617 1656 1657 1618 
1618 1657 1658 1619 
1619 1658 1659 1620 
1620 1659 1660 1621 
1621 1660 1661 1622 
1622 1661 1662 1623 
1623 1662 1663 1624 
1624 1663 1664 1625 
1625 1664 1665 1626 
1626 1665 1666 1627 
1627 1666 1667 1628 
1628 1667 1668 1629 
1629 1668 1669 1630 
1630 1669 1670 1631 
1631 1670 1671 1632 
1632 1671 1672 1633 
1633 1672 1673 1634 
1634 1673 1674 1635 
1635 1674 1675 1636 
1636 1675 1676 1637 
1637 1676 1677 1638 
1638 1677 1678 1639 
1639 1678 1679 1640 
1640 1679 1680 1641 
1641 1680 43 44 
159 3 4 1642 
1642 4 5 1643 
1643 5 6 1644 
1644 6 7 1645 
1645 7 8 1646 
1646 8 9 1647 
1647 9 10 1648 
1648 10 11 1649 
1649 11 12 1650 
1650 12 13 1651 
1651 13 14 1652 
1652 14 15 1653 
1653 15 16 1654 
1654 16 17 1655 
1655 17 18 1656 
1656 18 19 1657 
1657 19 20 1658 
1658 20 21 1659 
1659 21 22 1660 
1660 22 23 1661 
1661 23 24 1662 
1662 24 25 1663 
1663 25 26 1664 
1664 26 27 1665 
1665 27 28 1666 
1666 28 29 1667 
1667 29 30 1668 
1668 30 31 1669 
1669 31 32 1670 
1670 32 33 1671 
1671 33 34 1672 
1672 34 35 1673 
1673 35 36 1674 
1674 36 37 1675 
1675 37 38 1676 
1676 38 39 1677 
1677 39 40 1678 
1678 40 41 1679 
1679 41 42 1680 
1680 42 2 43 
</DataArray>
<DataArray type="Int32" Name="offsets" NumberOfComponents="1" format="ascii">
4 8 12 16 20 24 28 32 36 40 44 48 52 56 60 64 68 72 76 80 84 88 92 96 100 104 108 112 116 120 124 128 132 136 140 144 148 152 156 160 164 168 172 176 180 184 188 192 196 200 204 208 212 216 220 224 228 232 236 240 244 248 252 256 260 264 268 272 276 280 284 288 292 296 300 304 308 312 316 320 324 328 332 336 340 344 348 352 356 360 364 368 372 376 380 384 388 392 396 400 404 408 412 416 420 424 428 432 436 440 444 448 452 456 460 464 468 472 476 480 484 488 492 496 500 504 508 512 516 520 524 528 532 536 540 544 548 552 556 560 564 568 572 576 580 584 588 592 596 600 604 608 612 616 620 624 628 632 636 640 644 648 652 656 660 664 668 672 676 680 684 688 692 696 700 704 708 712 716 720 724 728 732 736 740 744 748 752 756 760 764 768 772 776 780 784 788 792 796 800 804 808 812 816 820 824 828 832 836 840 844 848 852 856 860 864 868 872 876 880 884 888 892 896 900 904 908 912 916 920 924 928 932 936 940 944 948 952 956 960 964 968 972 976 980 984 988 992 996 1000 1004 1008 1012 1016 1020 1024 1028 1032 1036 1040 1044 1048 1052 1056 1060 1064 1068 1072 1076 1080 1084 1088 1092 1096 1100 1104 1108 1112 1116 1120 1124 1128 1132 1136 1140 1144 1148 1152 1156 1160 1164 1168 1172 1176 1180 1184 1188 1192 1196 1200 1204 1208 1212 1216 1220 1224 1228 1232 1236 1240 1244 1248 1252 1256 1260 1264 1268 1272 1276 1280 1284 1288 1292 1296 1300 1304 1308 1312 1316 1320 1324 1328 1332 1336 1340 1344 1348 1352 1356 1360 1364 1368 1372 1376 1380 1384 1388 1392 1396 1400 1404 1408 1412 1416 1420 1424 1428 1432 1436 1440 1444 1448 1452 1456 1460 1464 1468 1472 1476 1480 1484 1488 1492 1496 1500 1504 1508 1512 1516 1520 1524 1528 1532 1536 1540 1544 1548 1552 1556 1560 1564 1568 1572 1576 1580 1584 1588 1592 1596 1600 1604 1608 1612 1616 1620 1624 1628 1632 1636 1640 1644 1648 1652 1656 1660 1664 1668 1672 1676 1680 1684 1688 1692 1696 1700 1704 1708 1712 1716 1720 1724 1728 1732 1736 1740 1744 1748 1752 1756 1760 1764 1768 1772 1776 1780 1784 1788 1792 1796 1800 1804 1808 1812 1816 1820 1824 1828 1832 1836 1840 1844 1848 1852 1856 1860 1864 1868 1872 1876 1880 1884 1888 1892 1896 1900 1904 1908 1912 1916 1920 1924 1928 1932 1936 1940 1944 1948 1952 1956 1960 1964 1968 1972 1976 1980 1984 1988 1992 1996 2000 2004 2008 2012 2016 2020 2024 2028 2032 2036 2040 2044 2048 2052 2056 2060 2064 2068 2072 2076 2080 2084 2088 2092 2096 2100 2104 2108 2112 2116 2120 2124 2128 2132 2136 2140 2144 2148 2152 2156 2160 2164 2168 2172 2176 2180 2184 2188 2192 2196 2200 2204 2208 2212 2216 2220 2224 2228 2232 2236 2240 2244 2248 2252 2256 2260 2264 2268 2272 2276 2280 2284 2288 2292 2296 2300 2304 2308 2312 2316 2320 2324 2328 2332 2336 2340 2344 2348 2352 2356 2360 2364 2368 2372 2376 2380 2384 2388 2392 2396 2400 2404 2408 2412 2416 2420 2424 2428 2432 2436 2440 2444 2448 2452 2456 2460 2464 2468 2472 2476 2480 2484 2488 2492 2496 2500 2504 2508 2512 2516 2520 2524 2528 2532 2536 2540 2544 2548 2552 2556 2560 2564 2568 2572 2576 2580 2584 2588 2592 2596 2600 2604 2608 2612 2616 2620 2624 2628 2632 2636 2640 2644 2648 2652 2656 2660 2664 2668 2672 2676 2680 2684 2688 2692 2696 2700 2704 2708 2712 2716 2720 2724 2728 2732 2736 2740 2744 2748 2752 2756 2760 2764 2768 2772 2776 2780 2784 2788 2792 2796 2800 2804 2808 2812 2816 2820 2824 2828 2832 2836 2840 2844 2848 2852 2856 2860 2864 2868 2872 2876 2880 2884 2888 2892 2896 2900 2904 2908 2912 2916 2920 2924 2928 2932 2936 2940 2944 2948 2952 2956 2960 2964 2968 2972 2976 2980 2984 2988 2992 2996 3000 3004 3008 3012 3016 3020 3024 3028 3032 3036 3040 3044 3048 3052 3056 3060 3064 3068 3072 3076 3080 3084 3088 3092 3096 3100 3104 3108 3112 3116 3120 3124 3128 3132 3136 3140 3144 3148 3152 3156 3160 3164 3168 3172 3176 3180 3184 3188 3192 3196 3200 3204 3208 3212 3216 3220 3224 3228 3232 3236 3240 3244 3248 3252 3256 3260 3264 3268 3272 3276 3280 3284 3288 3292 3296 3300 3304 3308 3312 3316 3320 3324 3328 3332 3336 3340 3344 3348 3352 3356 3360 3364 3368 3372 3376 3380 3384 3388 3392 3396 3400 3404 3408 3412 3416 3420 3424 3428 3432 3436 3440 3444 3448 3452 3456 3460 3464 3468 3472 3476 3480 3484 3488 3492 3496 3500 3504 3508 3512 3516 3520 3524 3528 3532 3536 3540 3544 3548 3552 3556 3560 3564 3568 3572 3576 3580 3584 3588 3592 3596 3600 3604 3608 3612 3616 3620 3624 3628 3632 3636 3640 3644 3648 3652 3656 3660 3664 3668 3672 3676 3680 3684 3688 3692 3696 3700 3704 3708 3712 3716 3720 3724 3728 3732 3736 3740 3744 3748 3752 3756 3760 3764 3768 3772 3776 3780 3784 3788 3792 3796 3800 3804 3808 3812 3816 3820 3824 3828 3832 3836 3840 3844 3848 3852 3856 3860 3864 3868 3872 3876 3880 3884 3888 3892 3896 3900 3904 3908 3912 3916 3920 3924 3928 3932 3936 3940 3944 3948 3952 3956 3960 3964 3968 3972 3976 3980 3984 3988 3992 3996 4000 4004 4008 4012 4016 4020 4024 4028 4032 4036 4040 4044 4048 4052 4056 4060 4064 4068 4072 4076 4080 4084 4088 4092 4096 4100 4104 4108 4112 4116 4120 4124 4128 4132 4136 4140 4144 4148 4152 4156 4160 4164 4168 4172 4176 4180 4184 4188 4192 4196 4200 4204 4208 4212 4216 4220 4224 4228 4232 4236 4240 4244 4248 4252 4256 4260 4264 4268 4272 4276 4280 4284 4288 4292 4296 4300 4304 4308 4312 4316 4320 4324 4328 4332 4336 4340 4344 4348 4352 4356 4360 4364 4368 4372 4376 4380 4384 4388 4392 4396 4400 4404 4408 4412 4416 4420 4424 4428 4432 4436 4440 4444 4448 4452 4456 4460 4464 4468 4472 4476 4480 4484 4488 4492 4496 4500 4504 4508 4512 4516 4520 4524 4528 4532 4536 4540 4544 4548 4552 4556 4560 4564 4568 4572 4576 4580 4584 4588 4592 4596 4600 4604 4608 4612 4616 4620 4624 4628 4632 4636 4640 4644 4648 4652 4656 4660 4664 4668 4672 4676 4680 4684 4688 4692 4696 4700 4704 4708 4712 4716 4720 4724 4728 4732 4736 4740 4744 4748 4752 4756 4760 4764 4768 4772 4776 4780 4784 4788 4792 4796 4800 4804 4808 4812 4816 4820 4824 4828 4832 4836 4840 4844 4848 4852 4856 4860 4864 4868 4872 4876 4880 4884 4888 4892 4896 4900 4904 4908 4912 4916 4920 4924 4928 4932 4936 4940 4944 4948 4952 4956 4960 4964 4968 4972 4976 4980 4984 4988 4992 4996 5000 5004 5008 5012 5016 5020 5024 5028 5032 5036 5040 5044 5048 5052 5056 5060 5064 5068 5072 5076 5080 5084 5088 5092 5096 5100 5104 5108 5112 5116 5120 5124 5128 5132 5136 5140 5144 5148 5152 5156 5160 5164 5168 5172 5176 5180 5184 5188 5192 5196 5200 5204 5208 5212 5216 5220 5224 5228 5232 5236 5240 5244 5248 5252 5256 5260 5264 5268 5272 5276 5280 5284 5288 5292 5296 5300 5304 5308 5312 5316 5320 5324 5328 5332 5336 5340 5344 5348 5352 5356 5360 5364 5368 5372 5376 5380 5384 5388 5392 5396 5400 5404 5408 5412 5416 5420 5424 5428 5432 5436 5440 5444 5448 5452 5456 5460 5464 5468 5472 5476 5480 5484 5488 5492 5496 5500 5504 5508 5512 5516 5520 5524 5528 5532 5536 5540 5544 5548 5552 5556 5560 5564 5568 5572 5576 5580 5584 5588 5592 5596 5600 5604 5608 5612 5616 5620 5624 5628 5632 5636 5640 5644 5648 5652 5656 5660 5664 5668 5672 5676 5680 5684 5688 5692 5696 5700 5704 5708 5712 5716 5720 5724 5728 5732 5736 5740 5744 5748 5752 5756 5760 5764 5768 5772 5776 5780 5784 5788 5792 5796 5800 5804 5808 5812 5816 5820 5824 5828 5832 5836 5840 5844 5848 5852 5856 5860 5864 5868 5872 5876 5880 5884 5888 5892 5896 5900 5904 5908 5912 5916 5920 5924 5928 5932 5936 5940 5944 5948 5952 5956 5960 5964 5968 5972 5976 5980 5984 5988 5992 5996 6000 6004 6008 6012 6016 6020 6024 6028 6032 6036 6040 6044 6048 6052 6056 6060 6064 6068 6072 6076 6080 6084 6088 6092 6096 6100 6104 6108 6112 6116 6120 6124 6128 6132 6136 6140 6144 6148 6152 6156 6160 6164 6168 6172 6176 6180 6184 6188 6192 6196 6200 6204 6208 6212 6216 6220 6224 6228 6232 6236 6240 6244 6248 6252 6256 6260 6264 6268 6272 6276 6280 6284 6288 6292 6296 6300 6304 6308 6312 6316 6320 6324 6328 6332 6336 6340 6344 6348 6352 6356 6360 6364 6368 6372 6376 6380 6384 6388 6392 6396 6400 
</DataArray>
<DataArray type="UInt8"  Name="types" NumberOfComponents="1" format="ascii">
9 9 9 9 9 9 9 9 9 9 9 9 9 9 9 9 9 9 9 9 9 9 9 9 9 9 9 9 9 9 9 9 9 9 9 9 9 9 9 9 9 9 9 9 9 9 9 9 9 9 9 9 9 9 9 9 9 9 9 9 9 9 9 9 9 9 9 9 9 9 9 9 9 9 9 9 9 9 9 9 9 9 9 9 9 9 9 9 9 9 9 9 9 9 9 9 9 9 9 9 9 9 9 9 9 9 9 9 9 9 9 9 9 9 9 9 9 9 9 9 9 9 9 9 9 9 9 9 9 9 9 9 9 9 9 9 9 9 9 9 9 9 9 9 9 9 9 9 9 9 9 9 9 9 9 9 9 9 9 9 9 9 9 9 9 9 9 9 9 9 9 9 9 9 9 9 9 9 9 9 9 9 9 9 9 9 9 9 9 9 9 9 9 9 9 9 9 9 9 9 9 9 9 9 9 9 9 9 9 9 9 9 9 9 9 9 9 9 9 9 9 9 9 9 9 9 9 9 9 9 9 9 9 9 9 9 9 9 9 9 9 9 9 9 9 9 9 9 9 9 9 9 9 9 9 9 9 9 9 9 9 9 9 9 9 9 9 9 9 9 9 9 9 9 9 9 9 9 9 9 9 9 9 9 9 9 9 9 9 9 9 9 9 9 9 9 9 9 9 9 9 9 9 9 9 9 9 9 9 9 9 9 9 9 9 9 9 9 9 9 9 9 9 9 9 9 9 9 9 9 9 9 9 9 9 9 9 9 9 9 9 9 9 9 9 9 9 9 9 9 9 9 9 9 9 9 9 9 9 9 9 9 9 9 9 9 9 9 9 9 9 9 9 9 9 9 9 9 9 9 9 9 9 9 9 9 9 9 9 9 9 9 9 9 9 9 9 9 9 9 9 9 9 9 9 9 9 9 9 9 9 9 9 9 9 9 9 9 9 9 9 9 9 9 9 9 9 9 9 9 9 9 9 9 9 9 9 9 9 9 9 9 9 9 9 9 9 9 9 9 9 9 9 9 9 9 9 9 9 9 9 9 9 9 9 9 9 9 9 9 9 9 9 9 9 9 9 9 9 9 9 9 9 9 9 9 9 9 9 9 9 9 9 9 9 9 9 9 9 9 9 9 9 9 9 9 9 9 9 9 9 9 9 9 9 9 9 9 9 9 9 9 9 9 9 9 9 9 9 9 9 9 9 9 9 9 9 9 9 9 9 9 9 9 9 9 9 9 9 9 9 9 9 9 9 9 9 9 9 9 9 9 9 9 9 9 9 9 9 9 9 9 9 9 9 9 9 9 9 9 9 9 9 9 9 9 9 9 9 9 9 9 9 9 9 9 9 9 9 9 9 9 9 9 9 9 9 9 9 9 9 9 9 9 9 9 9 9 9 9 9 9 9 9 9 9 9 9 9 9 9 9 9 9 9 9 9 9 9 9 9 9 9 9 9 9 9 9 9 9 9 9 9 9 9 9 9 9 9 9 9 9 9 9 9 9 9 9 9 9 9 9 9 9 9 9 9 9 9 9 9 9 9 9 9 9 9 9 9 9 9 9 9 9 9 9 9 9 9 9 9 9 9 9 9 9 9 9 9 9 9 9 9 9 9 9 9 9 9 9 9 9 9 9 9 9 9 9 9 9 9 9 9 9 9 9 9 9 9 9 9 9 9 9 9 9 9 9 9 9 9 9 9 9 9 9 9 9 9 9 9 9 9 9 9 9 9 9 9 9 9 9 9 9 9 9 9 9 9 9 9 9 9 9 9 9 9 9 9 9 9 9 9 9 9 9 9 9 9 9 9 9 9 9 9 9 9 9 9 9 9 9 9 9 9 9 9 9 9 9 9 9 9 9 9 9 9 9 9 9 9 9 9 9 9 9 9 9 9 9 9 9 9 9 9 9 9 9 9 9 9 9 9 9 9 9 9 9 9 9 9 9 9 9 9 9 9 9 9 9 9 9 9 9 9 9 9 9 9 9 9 9 9 9 9 9 9 9 9 9 9 9 9 9 9 9 9 9 9 9 9 9 9 9 9 9 9 9 9 9 9 9 9 9 9 9 9 9 9 9 9 9 9 9 9 9 9 9 9 9 9 9 9 9 9 9 9 9 9 9 9 9 9 9 9 9 9 9 9 9 9 9 9 9 9 9 9 9 9 9 9 9 9 9 9 9 9 9 9 9 9 9 9 9 9 9 9 9 9 9 9 9 9 9 9 9 9 9 9 9 9 9 9 9 9 9 9 9 9 9 9 9 9 9 9 9 9 9 9 9 9 9 9 9 9 9 9 9 9 9 9 9 9 9 9 9 9 9 9 9 9 9 9 9 9 9 9 9 9 9 9 9 9 9 9 9 9 9 9 9 9 9 9 9 9 9 9 9 9 9 9 9 9 9 9 9 9 9 9 9 9 9 9 9 9 9 9 9 9 9 9 9 9 9 9 9 9 9 9 9 9 9 9 9 9 9 9 9 9 9 9 9 9 9 9 9 9 9 9 9 9 9 9 9 9 9 9 9 9 9 9 9 9 9 9 9 9 9 9 9 9 9 9 9 9 9 9 9 9 9 9 9 9 9 9 9 9 9 9 9 9 9 9 9 9 9 9 9 9 9 9 9 9 9 9 9 9 9 9 9 9 9 9 9 9 9 9 9 9 9 9 9 9 9 9 9 9 9 9 9 9 9 9 9 9 9 9 9 9 9 9 9 9 9 9 9 9 9 9 9 9 9 9 9 9 9 9 9 9 9 9 9 9 9 9 9 9 9 9 9 9 9 9 9 9 9 9 9 9 9 9 9 9 9 9 9 9 9 9 9 9 9 9 9 9 9 9 9 9 9 9 9 9 9 9 9 9 9 9 9 9 9 9 9 9 9 9 9 9 9 9 9 9 9 9 9 9 9 9 9 9 9 9 9 9 9 9 9 9 9 9 9 9 9 9 9 9 9 9 9 9 9 9 9 9 9 9 9 9 9 9 9 9 9 9 9 9 9 9 9 9 9 9 9 9 9 9 9 9 9 9 9 9 9 9 9 9 9 9 9 9 9 9 9 9 9 9 9 9 9 9 9 9 9 9 9 9 9 9 9 9 9 9 9 9 9 9 9 9 9 9 9 9 9 9 9 9 9 9 9 9 9 9 9 9 9 9 9 9 9 9 9 9 9 9 9 9 9 9 9 9 9 9 9 9 9 9 9 9 9 9 9 9 9 9 9 9 9 9 9 9 9 9 9 9 9 9 9 9 9 9 9 9 9 9 9 9 9 9 9 9 9 9 9 9 9 9 9 9 9 9 9 9 9 9 9 9 9 9 9 9 9 9 9 9 9 9 9 9 9 9 9 9 9 9 9 9 9 9 9 9 9 9 9 9 9 9 9 9 9 9 9 9 9 9 9 9 9 9 9 9 9 9 9 9 9 9 9 9 9 9 9 9 9 9 9 9 9 9 9 9 9 9 9 9 9 9 9 9 9 9 9 9 9 9 9 9 9 9 9 9 9 9 9 9 9 9 9 9 9 9 9 9 9 9 9 9 9 9 9 9 9 9 9 9 9 9 9 9 9 9 9 9 9 9 9 9 9 9 9 9 9 9 9 9 9 9 9 9 9 
</DataArray>
</Cells>
<PointData Vectors="displ">
<DataArray type="Float64" Name="displ" NumberOfComponents="3" format="ascii" >
0.000000 0.000000 0.000000 
0.105000 0.000000 0.000000 
0.105000 0.000000 0.000000 
0.000000 0.000000 0.000000 
0.004195 -0.002495 0.000000 
0.007402 -0.004152 0.000000 
0.010267 -0.005524 0.000000 
0.012973 -0.006661 0.000000 
0.015585 -0.007629 0.000000 
0.018139 -0.008462 0.000000 
0.020653 -0.009182 0.000000 
0.023140 -0.009807 0.000000 
0.025610 -0.010348 0.000000 
0.028067 -0.010817 0.000000 
0.030517 -0.011221 0.000000 
0.032962 -0.011567 0.000000 
0.035405 -0.011861 0.000000 
0.037846 -0.012108 0.000000 
0.040287 -0.012310 0.000000 
0.042729 -0.012472 0.000000 
0.045171 -0.012595 0.000000 
0.047613 -0.012682 0.000000 
0.050057 -0.012733 0.000000 
0.052500 -0.012750 0.000000 
0.054943 -0.012733 0.000000 
0.057387 -0.012682 0.000000 
0.059829 -0.012595 0.000000 
0.062271 -0.012472 0.000000 
0.064713 -0.012310 0.000000 
0.067154 -0.012108 0.000000 
0.069595 -0.011861 0.000000 
0.072038 -0.011567 0.000000 
0.074483 -0.011221 0.000000 
0.076933 -0.010817 0.000000 
0.079390 -0.010348 0.000000 
0.081860 -0.009807 0.000000 
0.084347 -0.009182 0.000000 
0.086861 -0.008462 0.000000 
0.089415 -0.007629 0.000000 
0.092027 -0.006661 0.000000 
0.094733 -0.005524 0.000000 
0.097598 -0.004152 0.000000 
0.100805 -0.002495 0.000000 
0.105000 0.000000 0.000000 
0.105000 0.000000 0.000000 
0.105000 0.000000 0.000000 
0.105000 0.000000 0.000000 
0.105000 0.000000 0.000000 
0.105000 0.000000 0.000000 
0.105000 0.000000 0.000000 
0.105000 0.000000 0.000000 
0.105000 0.000000 0.000000 
0.105000 0.000000 0.000000 
0.105000 0.000000 0.000000 
0.105000 0.000000 0.000000 
0.105000 0.000000 0.000000 
0.105000 0.000000 0.000000 
0.105000 0.000000 0.000000 
0.105000 0.000000 0.000000 
0.105000 0.000000 0.000000 
0.105000 0.000000 0.000000 
0.105000 0.000000 0.000000 
0.105000 0.000000 0.000000 
0.105000 0.000000 0.000000 
0.105000 0.000000 0.000000 
0.105000 0.000000 0.000000 
0.105000 0.000000 0.000000 
0.105000 0.000000 0.000000 
0.105000 0.000000 0.000000 
0.105000 0.000000 0.000000 
0.105000 0.000000 0.000000 
0.105000 0.000000 0.000000 
0.105000 0.000000 0.000000 
0.105000 0.000000 0.000000 
0.105000 0.000000 0.000000 
0.105000 0.000000 0.000000 
0.105000 0.000000 0.000000 
0.105000 0.000000 0.000000 
0.105000 0.000000 0.000000 
0.105000 0.000000 0.000000 
0.105000 0.000000 0.000000 
0.105000 0.000000 0.000000 
0.100805 0.002495 0.000000 
0.097598 0.004152 0.000000 
0.094733 0.005524 0.000000 
0.092027 0.006661 0.000000 
0.089415 0.007629 0.000000 
0.086861 0.008462 0.000000 
0.084347 0.009182 0.000000 
0.081860 0.009807 0.000000 
0.079390 0.010348 0.000000 
0.076933 0.010817 0.000000 
0.074483 0.011221 0.000000 
0.072038 0.011567 0.000000 
0.069595 0.011861 0.000000 
0.067154 0.012108 0.000000 
0.064713 0.012310 0.000000 
0.062271 0.012472 0.000000 
0.059829 0.012595 0.000000 
0.057387 0.012682 0.000000 
0.054943 0.012733 0.000000 
0.052500 0.012750 0.000000 
0.050057 0.012733 0.000000 
0.047613 0.012682 0.000000 
0.045171 0.012595 0.000000 
0.042729 0.012472 0.000000 
0.040287 0.012310 0.000000 
0.037846 0.012108 0.000000 
0.035405 0.011861 0.000000 
0.032962 0.011567 0.000000 
0.030517 0.011221 0.000000 
0.028067 0.010817 0.000000 
0.025610 0.010348 0.000000 
0.023140 0.009807 0.000000 
0.020653 0.009182 0.000000 
0.018139 0.008462 0.000000 
0.015585 0.007629 0.000000 
0.012973 0.006661 0.000000 
0.010267 0.005524 0.000000 
0.007402 0.004152 0.000000 
0.004195 0.002495 0.000000 
0.000000 0.000000 0.000000 
0.000000 0.000000 0.000000 
0.000000 0.000000 0.000000 
0.000000 0.000000 0.000000 
0.000000 0.000000 0.000000 
0.000000 0.000000 0.000000 
0.000000 0.000000 0.000000 
0.000000 0.000000 0.000000 
0.000000 0.000000 0.000000 
0.000000 0.000000 0.000000 
0.000000 0.000000 0.000000 
0.000000 0.000000 0.000000 
0.000000 0.000000 0.000000 
0.000000 0.000000 0.000000 
0.000000 0.000000 0.000000 
0.000000 0.000000 0.000000 
0.000000 0.000000 0.000000 
0.000000 0.000000 0.000000 
0.000000 0.000000 0.000000 
0.000000 0.000000 0.000000 
0.000000 0.000000 0.000000 
0.000000 0.000000 0.000000 
0.000000 0.000000 0.000000 
0.000000 0.000000 0.000000 
0.000000 0.000000 0.000000 
0.000000 0.000000 0.000000 
0.000000 0.000000 0.000000 
0.000000 0.000000 0.000000 
0.000000 0.000000 0.000000 
0.000000 0.000000 0.000000 
0.000000 0.000000 0.000000 
0.000000 0.000000 0.000000 
0.000000 0.000000 0.000000 
0.000000 0.000000 0.000000 
0.000000 0.000000 0.000000 
0.000000 0.000000 0.000000 
0.000000 0.000000 0.000000 
0.000000 0.000000 0.000000 
0.000000 0.000000 0.000000 
0.003039 0.001716 0.000000 
0.006222 0.003446 0.000000 
0.009205 0.004831 0.000000 
0.012035 0.005992 0.000000 
0.014760 0.006976 0.000000 
0.017414 0.007821 0.000000 
0.020016 0.008549 0.000000 
0.022582 0.009180 0.000000 
0.025122 0.009725 0.000000 
0.027643 0.010197 0.000000 
0.030150 0.010603 0.000000 
0.032647 0.010951 0.000000 
0.035138 0.011246 0.000000 
0.037624 0.011492 0.000000 
0.040106 0.011695 0.000000 
0.042587 0.011857 0.000000 
0.045066 0.011980 0.000000 
0.047544 0.012067 0.000000 
0.050022 0.012118 0.000000 
0.052500 0.012135 0.000000 
0.054978 0.012118 0.000000 
0.057456 0.012067 0.000000 
0.059934 0.011980 0.000000 
0.062413 0.011857 0.000000 
0.064894 0.011695 0.000000 
0.067376 0.011492 0.000000 
0.069862 0.011246 0.000000 
0.072353 0.010951 0.000000 
0.074850 0.010603 0.000000 
0.077357 0.010197 0.000000 
0.079878 0.009725 0.000000 
0.082418 0.009180 0.000000 
0.084984 0.008549 0.000000 
0.087586 0.007821 0.000000 
0.090240 0.006976 0.000000 
0.092965 0.005992 0.000000 
0.095795 0.004831 0.000000 
0.098778 0.003446 0.000000 
0.101961 0.001716 0.000000 
0.002760 0.001392 0.000000 
0.005615 0.002856 0.000000 
0.008504 0.004194 0.000000 
0.011334 0.005342 0.000000 
0.014098 0.006328 0.000000 
0.016802 0.007176 0.000000 
0.019461 0.007909 0.000000 
0.022083 0.008544 0.000000 
0.024676 0.009093 0.000000 
0.027249 0.009567 0.000000 
0.029804 0.009975 0.000000 
0.032348 0.010324 0.000000 
0.034881 0.010620 0.000000 
0.037408 0.010867 0.000000 
0.039930 0.011071 0.000000 
0.042448 0.011233 0.000000 
0.044963 0.011356 0.000000 
0.047476 0.011443 0.000000 
0.049988 0.011494 0.000000 
0.052500 0.011512 0.000000 
0.055012 0.011494 0.000000 
0.057524 0.011443 0.000000 
0.060037 0.011356 0.000000 
0.062552 0.011233 0.000000 
0.065070 0.011071 0.000000 
0.067592 0.010867 0.000000 
0.070119 0.010620 0.000000 
0.072652 0.010324 0.000000 
0.075196 0.009975 0.000000 
0.077751 0.009567 0.000000 
0.080324 0.009093 0.000000 
0.082917 0.008544 0.000000 
0.085539 0.007909 0.000000 
0.088198 0.007176 0.000000 
0.090902 0.006328 0.000000 
0.093666 0.005342 0.000000 
0.096496 0.004194 0.000000 
0.099385 0.002856 0.000000 
0.102240 0.001392 0.000000 
0.002617 0.001200 0.000000 
0.005320 0.002457 0.000000 
0.008077 0.003663 0.000000 
0.010848 0.004754 0.000000 
0.013596 0.005714 0.000000 
0.016313 0.006551 0.000000 
0.018997 0.007279 0.000000 
0.021653 0.007911 0.000000 
0.024284 0.008460 0.000000 
0.026895 0.008934 0.000000 
0.029489 0.009342 0.000000 
0.032071 0.009692 0.000000 
0.034642 0.009988 0.000000 
0.037205 0.010235 0.000000 
0.039763 0.010439 0.000000 
0.042315 0.010601 0.000000 
0.044864 0.010724 0.000000 
0.047411 0.010811 0.000000 
0.049956 0.010863 0.000000 
0.052500 0.010880 0.000000 
0.055044 0.010863 0.000000 
0.057589 0.010811 0.000000 
0.060136 0.010724 0.000000 
0.062685 0.010601 0.000000 
0.065237 0.010439 0.000000 
0.067795 0.010235 0.000000 
0.070358 0.009988 0.000000 
0.072929 0.009692 0.000000 
0.075511 0.009342 0.000000 
0.078105 0.008934 0.000000 
0.080716 0.008460 0.000000 
0.083347 0.007911 0.000000 
0.086003 0.007279 0.000000 
0.088687 0.006551 0.000000 
0.091404 0.005714 0.000000 
0.094152 0.004754 0.000000 
0.096923 0.003663 0.000000 
0.099680 0.002457 0.000000 
0.102383 0.001200 0.000000 
0.002538 0.001060 0.000000 
0.005147 0.002160 0.000000 
0.007816 0.003237 0.000000 
0.010518 0.004243 0.000000 
0.013230 0.005153 0.000000 
0.015934 0.005960 0.000000 
0.018623 0.006671 0.000000 
0.021294 0.007293 0.000000 
0.023948 0.007835 0.000000 
0.026585 0.008305 0.000000 
0.029209 0.008710 0.000000 
0.031822 0.009058 0.000000 
0.034424 0.009352 0.000000 
0.037019 0.009599 0.000000 
0.039608 0.009801 0.000000 
0.042192 0.009963 0.000000 
0.044772 0.010086 0.000000 
0.047349 0.010173 0.000000 
0.049925 0.010224 0.000000 
0.052500 0.010241 0.000000 
0.055075 0.010224 0.000000 
0.057651 0.010173 0.000000 
0.060228 0.010086 0.000000 
0.062808 0.009963 0.000000 
0.065392 0.009801 0.000000 
0.067981 0.009599 0.000000 
0.070576 0.009352 0.000000 
0.073178 0.009058 0.000000 
0.075791 0.008710 0.000000 
0.078415 0.008305 0.000000 
0.081052 0.007835 0.000000 
0.083706 0.007293 0.000000 
0.086377 0.006671 0.000000 
0.089066 0.005960 0.000000 
0.091770 0.005153 0.000000 
0.094482 0.004243 0.000000 
0.097184 0.003237 0.000000 
0.099853 0.002160 0.000000 
0.102462 0.001060 0.000000 
0.002489 0.000948 0.000000 
0.005040 0.001922 0.000000 
0.007646 0.002886 0.000000 
0.010294 0.003802 0.000000 
0.012966 0.004647 0.000000 
0.015648 0.005412 0.000000 
0.018328 0.006093 0.000000 
0.021002 0.006695 0.000000 
0.023667 0.007224 0.000000 
0.026322 0.007684 0.000000 
0.028966 0.008083 0.000000 
0.031602 0.008426 0.000000 
0.034230 0.008717 0.000000 
0.036852 0.008961 0.000000 
0.039468 0.009161 0.000000 
0.042079 0.009321 0.000000 
0.044687 0.009443 0.000000 
0.047293 0.009529 0.000000 
0.049897 0.009580 0.000000 
0.052500 0.009597 0.000000 
0.055103 0.009580 0.000000 
0.057707 0.009529 0.000000 
0.060313 0.009443 0.000000 
0.062921 0.009321 0.000000 
0.065532 0.009161 0.000000 
0.068148 0.008961 0.000000 
0.070770 0.008717 0.000000 
0.073398 0.008426 0.000000 
0.076034 0.008083 0.000000 
0.078678 0.007684 0.000000 
0.081333 0.007224 0.000000 
0.083998 0.006695 0.000000 
0.086672 0.006093 0.000000 
0.089352 0.005412 0.000000 
0.092034 0.004647 0.000000 
0.094706 0.003802 0.000000 
0.097354 0.002886 0.000000 
0.099960 0.001922 0.000000 
0.102511 0.000948 0.000000 
0.002458 0.000852 0.000000 
0.004969 0.001723 0.000000 
0.007533 0.002585 0.000000 
0.010139 0.003415 0.000000 
0.012776 0.004192 0.000000 
0.015433 0.004905 0.000000 
0.018100 0.005549 0.000000 
0.020769 0.006124 0.000000 
0.023437 0.006632 0.000000 
0.026101 0.007078 0.000000 
0.028760 0.007465 0.000000 
0.031413 0.007799 0.000000 
0.034061 0.008084 0.000000 
0.036704 0.008323 0.000000 
0.039343 0.008520 0.000000 
0.041979 0.008677 0.000000 
0.044612 0.008797 0.000000 
0.047242 0.008882 0.000000 
0.049871 0.008932 0.000000 
0.052500 0.008948 0.000000 
0.055129 0.008932 0.000000 
0.057758 0.008882 0.000000 
0.060388 0.008797 0.000000 
0.063021 0.008677 0.000000 
0.065657 0.008520 0.000000 
0.068296 0.008323 0.000000 
0.070939 0.008084 0.000000 
0.073587 0.007799 0.000000 
0.076240 0.007465 0.000000 
0.078899 0.007078 0.000000 
0.081563 0.006632 0.000000 
0.084231 0.006124 0.000000 
0.086900 0.005549 0.000000 
0.089567 0.004905 0.000000 
0.092224 0.004192 0.000000 
0.094861 0.003415 0.000000 
0.097467 0.002585 0.000000 
0.100031 0.001723 0.000000 
0.102542 0.000852 0.000000 
0.002436 0.000768 0.000000 
0.004922 0.001548 0.000000 
0.007455 0.002321 0.000000 
0.010030 0.003070 0.000000 
0.012639 0.003779 0.000000 
0.015273 0.004437 0.000000 
0.017924 0.005037 0.000000 
0.020586 0.005578 0.000000 
0.023252 0.006061 0.000000 
0.025920 0.006487 0.000000 
0.028587 0.006859 0.000000 
0.031253 0.007181 0.000000 
0.033916 0.007457 0.000000 
0.036577 0.007689 0.000000 
0.039235 0.007880 0.000000 
0.041891 0.008033 0.000000 
0.044545 0.008150 0.000000 
0.047197 0.008232 0.000000 
0.049849 0.008281 0.000000 
0.052500 0.008297 0.000000 
0.055151 0.008281 0.000000 
0.057803 0.008232 0.000000 
0.060455 0.008150 0.000000 
0.063109 0.008033 0.000000 
0.065765 0.007880 0.000000 
0.068423 0.007689 0.000000 
0.071084 0.007457 0.000000 
0.073747 0.007181 0.000000 
0.076413 0.006859 0.000000 
0.079080 0.006487 0.000000 
0.081748 0.006061 0.000000 
0.084414 0.005578 0.000000 
0.087076 0.005037 0.000000 
0.089727 0.004437 0.000000 
0.092361 0.003779 0.000000 
0.094970 0.003070 0.000000 
0.097545 0.002321 0.000000 
0.100078 0.001548 0.000000 
0.102564 0.000768 0.000000 
0.002422 0.000692 0.000000 
0.004889 0.001391 0.000000 
0.007400 0.002084 0.000000 
0.009952 0.002758 0.000000 
0.012539 0.003400 0.000000 
0.015154 0.004002 0.000000 
0.017791 0.004556 0.000000 
0.020442 0.005059 0.000000 
0.023104 0.005511 0.000000 
0.025773 0.005913 0.000000 
0.028445 0.006266 0.000000 
0.031119 0.006573 0.000000 
0.033794 0.006837 0.000000 
0.036468 0.007059 0.000000 
0.039142 0.007243 0.000000 
0.041815 0.007390 0.000000 
0.044487 0.007503 0.000000 
0.047158 0.007582 0.000000 
0.049829 0.007630 0.000000 
0.052500 0.007645 0.000000 
0.055171 0.007630 0.000000 
0.057842 0.007582 0.000000 
0.060513 0.007503 0.000000 
0.063185 0.007390 0.000000 
0.065858 0.007243 0.000000 
0.068532 0.007059 0.000000 
0.071206 0.006837 0.000000 
0.073881 0.006573 0.000000 
0.076555 0.006266 0.000000 
0.079227 0.005913 0.000000 
0.081896 0.005511 0.000000 
0.084558 0.005059 0.000000 
0.087209 0.004556 0.000000 
0.089846 0.004002 0.000000 
0.092461 0.003400 0.000000 
0.095048 0.002758 0.000000 
0.097600 0.002084 0.000000 
0.100111 0.001391 0.000000 
0.102578 0.000692 0.000000 
0.002412 0.000622 0.000000 
0.004866 0.001247 0.000000 
0.007362 0.001867 0.000000 
0.009896 0.002471 0.000000 
0.012466 0.003049 0.000000 
0.015065 0.003594 0.000000 
0.017689 0.004100 0.000000 
0.020331 0.004563 0.000000 
0.022988 0.004982 0.000000 
0.025655 0.005356 0.000000 
0.028329 0.005687 0.000000 
0.031009 0.005976 0.000000 
0.033692 0.006225 0.000000 
0.036377 0.006436 0.000000 
0.039063 0.006610 0.000000 
0.041750 0.006750 0.000000 
0.044437 0.006858 0.000000 
0.047125 0.006933 0.000000 
0.049812 0.006979 0.000000 
0.052500 0.006994 0.000000 
0.055188 0.006979 0.000000 
0.057875 0.006933 0.000000 
0.060563 0.006858 0.000000 
0.063250 0.006750 0.000000 
0.065937 0.006610 0.000000 
0.068623 0.006436 0.000000 
0.071308 0.006225 0.000000 
0.073991 0.005976 0.000000 
0.076671 0.005687 0.000000 
0.079345 0.005356 0.000000 
0.082012 0.004982 0.000000 
0.084669 0.004563 0.000000 
0.087311 0.004100 0.000000 
0.089935 0.003594 0.000000 
0.092534 0.003049 0.000000 
0.095104 0.002471 0.000000 
0.097638 0.001867 0.000000 
0.100134 0.001247 0.000000 
0.102588 0.000622 0.000000 
0.002405 0.000555 0.000000 
0.004850 0.001113 0.000000 
0.007335 0.001664 0.000000 
0.009856 0.002203 0.000000 
0.012413 0.002720 0.000000 
0.014999 0.003210 0.000000 
0.017612 0.003668 0.000000 
0.020246 0.004089 0.000000 
0.022897 0.004472 0.000000 
0.025561 0.004817 0.000000 
0.028236 0.005122 0.000000 
0.030919 0.005390 0.000000 
0.033608 0.005622 0.000000 
0.036301 0.005819 0.000000 
0.038997 0.005983 0.000000 
0.041696 0.006114 0.000000 
0.044396 0.006215 0.000000 
0.047097 0.006287 0.000000 
0.049798 0.006329 0.000000 
0.052500 0.006343 0.000000 
0.055202 0.006329 0.000000 
0.057903 0.006287 0.000000 
0.060604 0.006215 0.000000 
0.063304 0.006114 0.000000 
0.066003 0.005983 0.000000 
0.068699 0.005819 0.000000 
0.071392 0.005622 0.000000 
0.074081 0.005390 0.000000 
0.076764 0.005122 0.000000 
0.079439 0.004817 0.000000 
0.082103 0.004472 0.000000 
0.084754 0.004089 0.000000 
0.087388 0.003668 0.000000 
0.090001 0.003210 0.000000 
0.092587 0.002720 0.000000 
0.095144 0.002203 0.000000 
0.097665 0.001664 0.000000 
0.100150 0.001113 0.000000 
0.102595 0.000555 0.000000 
0.002401 0.000493 0.000000 
0.004839 0.000986 0.000000 
0.007315 0.001474 0.000000 
0.009828 0.001950 0.000000 
0.012374 0.002409 0.000000 
0.014950 0.002845 0.000000 
0.017554 0.003255 0.000000 
0.020180 0.003633 0.000000 
0.022826 0.003979 0.000000 
0.025488 0.004292 0.000000 
0.028163 0.004571 0.000000 
0.030847 0.004816 0.000000 
0.033540 0.005029 0.000000 
0.036239 0.005210 0.000000 
0.038943 0.005361 0.000000 
0.041651 0.005483 0.000000 
0.044361 0.005576 0.000000 
0.047073 0.005643 0.000000 
0.049786 0.005682 0.000000 
0.052500 0.005695 0.000000 
0.055214 0.005682 0.000000 
0.057927 0.005643 0.000000 
0.060639 0.005576 0.000000 
0.063349 0.005483 0.000000 
0.066057 0.005361 0.000000 
0.068761 0.005210 0.000000 
0.071460 0.005029 0.000000 
0.074153 0.004816 0.000000 
0.076837 0.004571 0.000000 
0.079512 0.004292 0.000000 
0.082174 0.003979 0.000000 
0.084820 0.003633 0.000000 
0.087446 0.003255 0.000000 
0.090050 0.002845 0.000000 
0.092626 0.002409 0.000000 
0.095172 0.001950 0.000000 
0.097685 0.001474 0.000000 
0.100161 0.000986 0.000000 
0.102599 0.000493 0.000000 
0.002397 0.000433 0.000000 
0.004832 0.000865 0.000000 
0.007302 0.001292 0.000000 
0.009807 0.001709 0.000000 
0.012345 0.002112 0.000000 
0.014914 0.002496 0.000000 
0.017510 0.002858 0.000000 
0.020131 0.003193 0.000000 
0.022772 0.003502 0.000000 
0.025431 0.003781 0.000000 
0.028104 0.004031 0.000000 
0.030790 0.004252 0.000000 
0.033486 0.004445 0.000000 
0.036190 0.004609 0.000000 
0.038899 0.004746 0.000000 
0.041614 0.004857 0.000000 
0.044333 0.004942 0.000000 
0.047054 0.005002 0.000000 
0.049776 0.005038 0.000000 
0.052500 0.005050 0.000000 
0.055224 0.005038 0.000000 
0.057946 0.005002 0.000000 
0.060667 0.004942 0.000000 
0.063386 0.004857 0.000000 
0.066101 0.004746 0.000000 
0.068810 0.004609 0.000000 
0.071514 0.004445 0.000000 
0.074210 0.004252 0.000000 
0.076896 0.004031 0.000000 
0.079569 0.003781 0.000000 
0.082228 0.003502 0.000000 
0.084869 0.003193 0.000000 
0.087490 0.002858 0.000000 
0.090086 0.002496 0.000000 
0.092655 0.002112 0.000000 
0.095193 0.001709 0.000000 
0.097698 0.001292 0.000000 
0.100168 0.000865 0.000000 
0.102603 0.000433 0.000000 
0.002395 0.000375 0.000000 
0.004826 0.000748 0.000000 
0.007292 0.001118 0.000000 
0.009793 0.001478 0.000000 
0.012325 0.001827 0.000000 
0.014888 0.002160 0.000000 
0.017478 0.002474 0.000000 
0.020094 0.002767 0.000000 
0.022731 0.003037 0.000000 
0.025387 0.003282 0.000000 
0.028059 0.003503 0.000000 
0.030745 0.003698 0.000000 
0.033443 0.003869 0.000000 
0.036150 0.004015 0.000000 
0.038864 0.004137 0.000000 
0.041585 0.004236 0.000000 
0.044310 0.004312 0.000000 
0.047038 0.004366 0.000000 
0.049769 0.004398 0.000000 
0.052500 0.004409 0.000000 
0.055231 0.004398 0.000000 
0.057962 0.004366 0.000000 
0.060690 0.004312 0.000000 
0.063415 0.004236 0.000000 
0.066136 0.004137 0.000000 
0.068850 0.004015 0.000000 
0.071557 0.003869 0.000000 
0.074255 0.003698 0.000000 
0.076941 0.003503 0.000000 
0.079613 0.003282 0.000000 
0.082269 0.003037 0.000000 
0.084906 0.002767 0.000000 
0.087522 0.002474 0.000000 
0.090112 0.002160 0.000000 
0.092675 0.001827 0.000000 
0.095207 0.001478 0.000000 
0.097708 0.001118 0.000000 
0.100174 0.000748 0.000000 
0.102605 0.000375 0.000000 
0.002394 0.000319 0.000000 
0.004823 0.000636 0.000000 
0.007286 0.000949 0.000000 
0.009782 0.001255 0.000000 
0.012310 0.001551 0.000000 
0.014869 0.001834 0.000000 
0.017455 0.002102 0.000000 
0.020066 0.002352 0.000000 
0.022700 0.002584 0.000000 
0.025353 0.002794 0.000000 
0.028025 0.002984 0.000000 
0.030711 0.003153 0.000000 
0.033409 0.003301 0.000000 
0.036119 0.003427 0.000000 
0.038837 0.003534 0.000000 
0.041562 0.003620 0.000000 
0.044292 0.003686 0.000000 
0.047026 0.003733 0.000000 
0.049762 0.003761 0.000000 
0.052500 0.003771 0.000000 
0.055238 0.003761 0.000000 
0.057974 0.003733 0.000000 
0.060708 0.003686 0.000000 
0.063438 0.003620 0.000000 
0.066163 0.003534 0.000000 
0.068881 0.003427 0.000000 
0.071591 0.003301 0.000000 
0.074289 0.003153 0.000000 
0.076975 0.002984 0.000000 
0.079647 0.002794 0.000000 
0.082300 0.002584 0.000000 
0.084934 0.002352 0.000000 
0.087545 0.002102 0.000000 
0.090131 0.001834 0.000000 
0.092690 0.001551 0.000000 
0.095218 0.001255 0.000000 
0.097714 0.000949 0.000000 
0.100177 0.000636 0.000000 
0.102606 0.000319 0.000000 
0.002394 0.000264 0.000000 
0.004821 0.000526 0.000000 
0.007282 0.000785 0.000000 
0.009775 0.001038 0.000000 
0.012300 0.001282 0.000000 
0.014855 0.001517 0.000000 
0.017437 0.001739 0.000000 
0.020045 0.001947 0.000000 
0.022676 0.002139 0.000000 
0.025328 0.002315 0.000000 
0.027998 0.002474 0.000000 
0.030684 0.002616 0.000000 
0.033384 0.002740 0.000000 
0.036095 0.002846 0.000000 
0.038815 0.002936 0.000000 
0.041543 0.003008 0.000000 
0.044278 0.003064 0.000000 
0.047016 0.003104 0.000000 
0.049757 0.003128 0.000000 
0.052500 0.003136 0.000000 
0.055243 0.003128 0.000000 
0.057984 0.003104 0.000000 
0.060722 0.003064 0.000000 
0.063457 0.003008 0.000000 
0.066185 0.002936 0.000000 
0.068905 0.002846 0.000000 
0.071616 0.002740 0.000000 
0.074316 0.002616 0.000000 
0.077002 0.002474 0.000000 
0.079672 0.002315 0.000000 
0.082324 0.002139 0.000000 
0.084955 0.001947 0.000000 
0.087563 0.001739 0.000000 
0.090145 0.001517 0.000000 
0.092700 0.001282 0.000000 
0.095225 0.001038 0.000000 
0.097718 0.000785 0.000000 
0.100179 0.000526 0.000000 
0.102606 0.000264 0.000000 
0.002393 0.000210 0.000000 
0.004820 0.000418 0.000000 
0.007279 0.000624 0.000000 
0.009771 0.000825 0.000000 
0.012293 0.001019 0.000000 
0.014845 0.001206 0.000000 
0.017425 0.001383 0.000000 
0.020031 0.001549 0.000000 
0.022660 0.001703 0.000000 
0.025310 0.001844 0.000000 
0.027979 0.001971 0.000000 
0.030665 0.002085 0.000000 
0.033365 0.002185 0.000000 
0.036077 0.002270 0.000000 
0.038799 0.002343 0.000000 
0.041530 0.002401 0.000000 
0.044267 0.002447 0.000000 
0.047009 0.002479 0.000000 
0.049754 0.002498 0.000000 
0.052500 0.002504 0.000000 
0.055246 0.002498 0.000000 
0.057991 0.002479 0.000000 
0.060733 0.002447 0.000000 
0.063470 0.002401 0.000000 
0.066201 0.002343 0.000000 
0.068923 0.002270 0.000000 
0.071635 0.002185 0.000000 
0.074335 0.002085 0.000000 
0.077021 0.001971 0.000000 
0.079690 0.001844 0.000000 
0.082340 0.001703 0.000000 
0.084969 0.001549 0.000000 
0.087575 0.001383 0.000000 
0.090155 0.001206 0.000000 
0.092707 0.001019 0.000000 
0.095229 0.000825 0.000000 
0.097721 0.000624 0.000000 
0.100180 0.000418 0.000000 
0.102607 0.000210 0.000000 
0.002393 0.000157 0.000000 
0.004819 0.000312 0.000000 
0.007277 0.000466 0.000000 
0.009768 0.000616 0.000000 
0.012288 0.000761 0.000000 
0.014839 0.000900 0.000000 
0.017417 0.001033 0.000000 
0.020020 0.001157 0.000000 
0.022648 0.001272 0.000000 
0.025297 0.001378 0.000000 
0.027965 0.001474 0.000000 
0.030650 0.001559 0.000000 
0.033351 0.001634 0.000000 
0.036064 0.001699 0.000000 
0.038787 0.001753 0.000000 
0.041520 0.001798 0.000000 
0.044259 0.001832 0.000000 
0.047003 0.001856 0.000000 
0.049751 0.001871 0.000000 
0.052500 0.001876 0.000000 
0.055249 0.001871 0.000000 
0.057997 0.001856 0.000000 
0.060741 0.001832 0.000000 
0.063480 0.001798 0.000000 
0.066213 0.001753 0.000000 
0.068936 0.001699 0.000000 
0.071649 0.001634 0.000000 
0.074350 0.001559 0.000000 
0.077035 0.001474 0.000000 
0.079703 0.001378 0.000000 
0.082352 0.001272 0.000000 
0.084980 0.001157 0.000000 
0.087583 0.001033 0.000000 
0.090161 0.000900 0.000000 
0.092712 0.000761 0.000000 
0.095232 0.000616 0.000000 
0.097723 0.000466 0.000000 
0.100181 0.000312 0.000000 
0.102607 0.000157 0.000000 
0.002393 0.000104 0.000000 
0.004819 0.000208 0.000000 
0.007276 0.000309 0.000000 
0.009766 0.000409 0.000000 
0.012285 0.000506 0.000000 
0.014834 0.000598 0.000000 
0.017411 0.000686 0.000000 
0.020014 0.000769 0.000000 
0.022640 0.000846 0.000000 
0.025288 0.000916 0.000000 
0.027956 0.000980 0.000000 
0.030641 0.001037 0.000000 
0.033341 0.001087 0.000000 
0.036055 0.001131 0.000000 
0.038779 0.001167 0.000000 
0.041513 0.001197 0.000000 
0.044254 0.001220 0.000000 
0.047000 0.001236 0.000000 
0.049749 0.001246 0.000000 
0.052500 0.001249 0.000000 
0.055251 0.001246 0.000000 
0.058000 0.001236 0.000000 
0.060746 0.001220 0.000000 
0.063487 0.001197 0.000000 
0.066221 0.001167 0.000000 
0.068945 0.001131 0.000000 
0.071659 0.001087 0.000000 
0.074359 0.001037 0.000000 
0.077044 0.000980 0.000000 
0.079712 0.000916 0.000000 
0.082360 0.000846 0.000000 
0.084986 0.000769 0.000000 
0.087589 0.000686 0.000000 
0.090166 0.000598 0.000000 
0.092715 0.000506 0.000000 
0.095234 0.000409 0.000000 
0.097724 0.000309 0.000000 
0.100181 0.000208 0.000000 
0.102607 0.000104 0.000000 
0.002393 0.000052 0.000000 
0.004818 0.000104 0.000000 
0.007276 0.000154 0.000000 
0.009765 0.000204 0.000000 
0.012284 0.000252 0.000000 
0.014832 0.000299 0.000000 
0.017408 0.000342 0.000000 
0.020010 0.000384 0.000000 
0.022636 0.000422 0.000000 
0.025283 0.000457 0.000000 
0.027951 0.000489 0.000000 
0.030636 0.000518 0.000000 
0.033336 0.000543 0.000000 
0.036050 0.000565 0.000000 
0.038775 0.000583 0.000000 
0.041509 0.000598 0.000000 
0.044251 0.000610 0.000000 
0.046997 0.000618 0.000000 
0.049748 0.000623 0.000000 
0.052500 0.000624 0.000000 
0.055252 0.000623 0.000000 
0.058003 0.000618 0.000000 
0.060749 0.000610 0.000000 
0.063491 0.000598 0.000000 
0.066225 0.000583 0.000000 
0.068950 0.000565 0.000000 
0.071664 0.000543 0.000000 
0.074364 0.000518 0.000000 
0.077049 0.000489 0.000000 
0.079717 0.000457 0.000000 
0.082364 0.000422 0.000000 
0.084990 0.000384 0.000000 
0.087592 0.000342 0.000000 
0.090168 0.000299 0.000000 
0.092716 0.000252 0.000000 
0.095235 0.000204 0.000000 
0.097724 0.000154 0.000000 
0.100182 0.000104 0.000000 
0.102607 0.000052 0.000000 
0.002393 0.000000 0.000000 
0.004818 0.000000 0.000000 
0.007276 0.000000 0.000000 
0.009764 0.000000 0.000000 
0.012283 0.000000 0.000000 
0.014831 0.000000 0.000000 
0.017407 0.000000 0.000000 
0.020009 0.000000 0.000000 
0.022634 0.000000 0.000000 
0.025282 0.000000 0.000000 
0.027949 0.000000 0.000000 
0.030634 0.000000 0.000000 
0.033334 0.000000 0.000000 
0.036048 0.000000 0.000000 
0.038773 0.000000 0.000000 
0.041508 0.000000 0.000000 
0.044250 0.000000 0.000000 
0.046997 -0.000000 0.000000 
0.049747 -0.000000 0.000000 
0.052500 -0.000000 0.000000 
0.055253 -0.000000 0.000000 
0.058003 -0.000000 0.000000 
0.060750 -0.000000 0.000000 
0.063492 -0.000000 0.000000 
0.066227 -0.000000 0.000000 
0.068952 -0.000000 0.000000 
0.071666 -0.000000 0.000000 
0.074366 -0.000000 0.000000 
0.077051 -0.000000 0.000000 
0.079718 -0.000000 0.000000 
0.082366 -0.000000 0.000000 
0.084991 -0.000000 0.000000 
0.087593 -0.000000 0.000000 
0.090169 -0.000000 0.000000 
0.092717 -0.000000 0.000000 
0.095236 -0.000000 0.000000 
0.097724 -0.000000 0.000000 
0.100182 -0.000000 0.000000 
0.102607 -0.000000 0.000000 
0.002393 -0.000052 0.000000 
0.004818 -0.000104 0.000000 
0.007276 -0.000154 0.000000 
0.009765 -0.000204 0.000000 
0.012284 -0.000252 0.000000 
0.014832 -0.000299 0.000000 
0.017408 -0.000342 0.000000 
0.020010 -0.000384 0.000000 
0.022636 -0.000422 0.000000 
0.025283 -0.000457 0.000000 
0.027951 -0.000489 0.000000 
0.030636 -0.000518 0.000000 
0.033336 -0.000543 0.000000 
0.036050 -0.000565 0.000000 
0.038775 -0.000583 0.000000 
0.041509 -0.000598 0.000000 
0.044251 -0.000610 0.000000 
0.046997 -0.000618 0.000000 
0.049748 -0.000623 0.000000 
0.052500 -0.000624 0.000000 
0.055252 -0.000623 0.000000 
0.058003 -0.000618 0.000000 
0.060749 -0.000610 0.000000 
0.063491 -0.000598 0.000000 
0.066225 -0.000583 0.000000 
0.068950 -0.000565 0.000000 
0.071664 -0.000543 0.000000 
0.074364 -0.000518 0.000000 
0.077049 -0.000489 0.000000 
0.079717 -0.000457 0.000000 
0.082364 -0.000422 0.000000 
0.084990 -0.000384 0.000000 
0.087592 -0.000342 0.000000 
0.090168 -0.000299 0.000000 
0.092716 -0.000252 0.000000 
0.095235 -0.000204 0.000000 
0.097724 -0.000154 0.000000 
0.100182 -0.000104 0.000000 
0.102607 -0.000052 0.000000 
0.002393 -0.000104 0.000000 
0.004819 -0.000208 0.000000 
0.007276 -0.000309 0.000000 
0.009766 -0.000409 0.000000 
0.012285 -0.000506 0.000000 
0.014834 -0.000598 0.000000 
0.017411 -0.000686 0.000000 
0.020014 -0.000769 0.000000 
0.022640 -0.000846 0.000000 
0.025288 -0.000916 0.000000 
0.027956 -0.000980 0.000000 
0.030641 -0.001037 0.000000 
0.033341 -0.001087 0.000000 
0.036055 -0.001131 0.000000 
0.038779 -0.001167 0.000000 
0.041513 -0.001197 0.000000 
0.044254 -0.001220 0.000000 
0.047000 -0.001236 0.000000 
0.049749 -0.001246 0.000000 
0.052500 -0.001249 0.000000 
0.055251 -0.001246 0.000000 
0.058000 -0.001236 0.000000 
0.060746 -0.001220 0.000000 
0.063487 -0.001197 0.000000 
0.066221 -0.001167 0.000000 
0.068945 -0.001131 0.000000 
0.071659 -0.001087 0.000000 
0.074359 -0.001037 0.000000 
0.077044 -0.000980 0.000000 
0.079712 -0.000916 0.000000 
0.082360 -0.000846 0.000000 
0.084986 -0.000769 0.000000 
0.087589 -0.000686 0.000000 
0.090166 -0.000598 0.000000 
0.092715 -0.000506 0.000000 
0.095234 -0.000409 0.000000 
0.097724 -0.000309 0.000000 
0.100181 -0.000208 0.000000 
0.102607 -0.000104 0.000000 
0.002393 -0.000157 0.000000 
0.004819 -0.000312 0.000000 
0.007277 -0.000466 0.000000 
0.009768 -0.000616 0.000000 
0.012288 -0.000761 0.000000 
0.014839 -0.000900 0.000000 
0.017417 -0.001033 0.000000 
0.020020 -0.001157 0.000000 
0.022648 -0.001272 0.000000 
0.025297 -0.001378 0.000000 
0.027965 -0.001474 0.000000 
0.030650 -0.001559 0.000000 
0.033351 -0.001634 0.000000 
0.036064 -0.001699 0.000000 
0.038787 -0.001753 0.000000 
0.041520 -0.001798 0.000000 
0.044259 -0.001832 0.000000 
0.047003 -0.001856 0.000000 
0.049751 -0.001871 0.000000 
0.052500 -0.001876 0.000000 
0.055249 -0.001871 0.000000 
0.057997 -0.001856 0.000000 
0.060741 -0.001832 0.000000 
0.063480 -0.001798 0.000000 
0.066213 -0.001753 0.000000 
0.068936 -0.001699 0.000000 
0.071649 -0.001634 0.000000 
0.074350 -0.001559 0.000000 
0.077035 -0.001474 0.000000 
0.079703 -0.001378 0.000000 
0.082352 -0.001272 0.000000 
0.084980 -0.001157 0.000000 
0.087583 -0.001033 0.000000 
0.090161 -0.000900 0.000000 
0.092712 -0.000761 0.000000 
0.095232 -0.000616 0.000000 
0.097723 -0.000466 0.000000 
0.100181 -0.000312 0.000000 
0.102607 -0.000157 0.000000 
0.002393 -0.000210 0.000000 
0.004820 -0.000418 0.000000 
0.007279 -0.000624 0.000000 
0.009771 -0.000825 0.000000 
0.012293 -0.001019 0.000000 
0.014845 -0.001206 0.000000 
0.017425 -0.001383 0.000000 
0.020031 -0.001549 0.000000 
0.022660 -0.001703 0.000000 
0.025310 -0.001844 0.000000 
0.027979 -0.001971 0.000000 
0.030665 -0.002085 0.000000 
0.033365 -0.002185 0.000000 
0.036077 -0.002270 0.000000 
0.038799 -0.002343 0.000000 
0.041530 -0.002401 0.000000 
0.044267 -0.002447 0.000000 
0.047009 -0.002479 0.000000 
0.049754 -0.002498 0.000000 
0.052500 -0.002504 0.000000 
0.055246 -0.002498 0.000000 
0.057991 -0.002479 0.000000 
0.060733 -0.002447 0.000000 
0.063470 -0.002401 0.000000 
0.066201 -0.002343 0.000000 
0.068923 -0.002270 0.000000 
0.071635 -0.002185 0.000000 
0.074335 -0.002085 0.000000 
0.077021 -0.001971 0.000000 
0.079690 -0.001844 0.000000 
0.082340 -0.001703 0.000000 
0.084969 -0.001549 0.000000 
0.087575 -0.001383 0.000000 
0.090155 -0.001206 0.000000 
0.092707 -0.001019 0.000000 
0.095229 -0.000825 0.000000 
0.097721 -0.000624 0.000000 
0.100180 -0.000418 0.000000 
0.102607 -0.000210 0.000000 
0.002394 -0.000264 0.000000 
0.004821 -0.000526 0.000000 
0.007282 -0.000785 0.000000 
0.009775 -0.001038 0.000000 
0.012300 -0.001282 0.000000 
0.014855 -0.001517 0.000000 
0.017437 -0.001739 0.000000 
0.020045 -0.001947 0.000000 
0.022676 -0.002139 0.000000 
0.025328 -0.002315 0.000000 
0.027998 -0.002474 0.000000 
0.030684 -0.002616 0.000000 
0.033384 -0.002740 0.000000 
0.036095 -0.002846 0.000000 
0.038815 -0.002936 0.000000 
0.041543 -0.003008 0.000000 
0.044278 -0.003064 0.000000 
0.047016 -0.003104 0.000000 
0.049757 -0.003128 0.000000 
0.052500 -0.003136 0.000000 
0.055243 -0.003128 0.000000 
0.057984 -0.003104 0.000000 
0.060722 -0.003064 0.000000 
0.063457 -0.003008 0.000000 
0.066185 -0.002936 0.000000 
0.068905 -0.002846 0.000000 
0.071616 -0.002740 0.000000 
0.074316 -0.002616 0.000000 
0.077002 -0.002474 0.000000 
0.079672 -0.002315 0.000000 
0.082324 -0.002139 0.000000 
0.084955 -0.001947 0.000000 
0.087563 -0.001739 0.000000 
0.090145 -0.001517 0.000000 
0.092700 -0.001282 0.000000 
0.095225 -0.001038 0.000000 
0.097718 -0.000785 0.000000 
0.100179 -0.000526 0.000000 
0.102606 -0.000264 0.000000 
0.002394 -0.000319 0.000000 
0.004823 -0.000636 0.000000 
0.007286 -0.000949 0.000000 
0.009782 -0.001255 0.000000 
0.012310 -0.001551 0.000000 
0.014869 -0.001834 0.000000 
0.017455 -0.002102 0.000000 
0.020066 -0.002352 0.000000 
0.022700 -0.002584 0.000000 
0.025353 -0.002794 0.000000 
0.028025 -0.002984 0.000000 
0.030711 -0.003153 0.000000 
0.033409 -0.003301 0.000000 
0.036119 -0.003427 0.000000 
0.038837 -0.003534 0.000000 
0.041562 -0.003620 0.000000 
0.044292 -0.003686 0.000000 
0.047026 -0.003733 0.000000 
0.049762 -0.003761 0.000000 
0.052500 -0.003771 0.000000 
0.055238 -0.003761 0.000000 
0.057974 -0.003733 0.000000 
0.060708 -0.003686 0.000000 
0.063438 -0.003620 0.000000 
0.066163 -0.003534 0.000000 
0.068881 -0.003427 0.000000 
0.071591 -0.003301 0.000000 
0.074289 -0.003153 0.000000 
0.076975 -0.002984 0.000000 
0.079647 -0.002794 0.000000 
0.082300 -0.002584 0.000000 
0.084934 -0.002352 0.000000 
0.087545 -0.002102 0.000000 
0.090131 -0.001834 0.000000 
0.092690 -0.001551 0.000000 
0.095218 -0.001255 0.000000 
0.097714 -0.000949 0.000000 
0.100177 -0.000636 0.000000 
0.102606 -0.000319 0.000000 
0.002395 -0.000375 0.000000 
0.004826 -0.000748 0.000000 
0.007292 -0.001118 0.000000 
0.009793 -0.001478 0.000000 
0.012325 -0.001827 0.000000 
0.014888 -0.002160 0.000000 
0.017478 -0.002474 0.000000 
0.020094 -0.002767 0.000000 
0.022731 -0.003037 0.000000 
0.025387 -0.003282 0.000000 
0.028059 -0.003503 0.000000 
0.030745 -0.003698 0.000000 
0.033443 -0.003869 0.000000 
0.036150 -0.004015 0.000000 
0.038864 -0.004137 0.000000 
0.041585 -0.004236 0.000000 
0.044310 -0.004312 0.000000 
0.047038 -0.004366 0.000000 
0.049769 -0.004398 0.000000 
0.052500 -0.004409 0.000000 
0.055231 -0.004398 0.000000 
0.057962 -0.004366 0.000000 
0.060690 -0.004312 0.000000 
0.063415 -0.004236 0.000000 
0.066136 -0.004137 0.000000 
0.068850 -0.004015 0.000000 
0.071557 -0.003869 0.000000 
0.074255 -0.003698 0.000000 
0.076941 -0.003503 0.000000 
0.079613 -0.003282 0.000000 
0.082269 -0.003037 0.000000 
0.084906 -0.002767 0.000000 
0.087522 -0.002474 0.000000 
0.090112 -0.002160 0.000000 
0.092675 -0.001827 0.000000 
0.095207 -0.001478 0.000000 
0.097708 -0.001118 0.000000 
0.100174 -0.000748 0.000000 
0.102605 -0.000375 0.000000 
0.002397 -0.000433 0.000000 
0.004832 -0.000865 0.000000 
0.007302 -0.001292 0.000000 
0.009807 -0.001709 0.000000 
0.012345 -0.002112 0.000000 
0.014914 -0.002496 0.000000 
0.017510 -0.002858 0.000000 
0.020131 -0.003193 0.000000 
0.022772 -0.003502 0.000000 
0.025431 -0.003781 0.000000 
0.028104 -0.004031 0.000000 
0.030790 -0.004252 0.000000 
0.033486 -0.004445 0.000000 
0.036190 -0.004609 0.000000 
0.038899 -0.004746 0.000000 
0.041614 -0.004857 0.000000 
0.044333 -0.004942 0.000000 
0.047054 -0.005002 0.000000 
0.049776 -0.005038 0.000000 
0.052500 -0.005050 0.000000 
0.055224 -0.005038 0.000000 
0.057946 -0.005002 0.000000 
0.060667 -0.004942 0.000000 
0.063386 -0.004857 0.000000 
0.066101 -0.004746 0.000000 
0.068810 -0.004609 0.000000 
0.071514 -0.004445 0.000000 
0.074210 -0.004252 0.000000 
0.076896 -0.004031 0.000000 
0.079569 -0.003781 0.000000 
0.082228 -0.003502 0.000000 
0.084869 -0.003193 0.000000 
0.087490 -0.002858 0.000000 
0.090086 -0.002496 0.000000 
0.092655 -0.002112 0.000000 
0.095193 -0.001709 0.000000 
0.097698 -0.001292 0.000000 
0.100168 -0.000865 0.000000 
0.102603 -0.000433 0.000000 
0.002401 -0.000493 0.000000 
0.004839 -0.000986 0.000000 
0.007315 -0.001474 0.000000 
0.009828 -0.001950 0.000000 
0.012374 -0.002409 0.000000 
0.014950 -0.002845 0.000000 
0.017554 -0.003255 0.000000 
0.020180 -0.003633 0.000000 
0.022826 -0.003979 0.000000 
0.025488 -0.004292 0.000000 
0.028163 -0.004571 0.000000 
0.030847 -0.004816 0.000000 
0.033540 -0.005029 0.000000 
0.036239 -0.005210 0.000000 
0.038943 -0.005361 0.000000 
0.041651 -0.005483 0.000000 
0.044361 -0.005576 0.000000 
0.047073 -0.005643 0.000000 
0.049786 -0.005682 0.000000 
0.052500 -0.005695 0.000000 
0.055214 -0.005682 0.000000 
0.057927 -0.005643 0.000000 
0.060639 -0.005576 0.000000 
0.063349 -0.005483 0.000000 
0.066057 -0.005361 0.000000 
0.068761 -0.005210 0.000000 
0.071460 -0.005029 0.000000 
0.074153 -0.004816 0.000000 
0.076837 -0.004571 0.000000 
0.079512 -0.004292 0.000000 
0.082174 -0.003979 0.000000 
0.084820 -0.003633 0.000000 
0.087446 -0.003255 0.000000 
0.090050 -0.002845 0.000000 
0.092626 -0.002409 0.000000 
0.095172 -0.001950 0.000000 
0.097685 -0.001474 0.000000 
0.100161 -0.000986 0.000000 
0.102599 -0.000493 0.000000 
0.002405 -0.000555 0.000000 
0.004850 -0.001113 0.000000 
0.007335 -0.001664 0.000000 
0.009856 -0.002203 0.000000 
0.012413 -0.002720 0.000000 
0.014999 -0.003210 0.000000 
0.017612 -0.003668 0.000000 
0.020246 -0.004089 0.000000 
0.022897 -0.004472 0.000000 
0.025561 -0.004817 0.000000 
0.028236 -0.005122 0.000000 
0.030919 -0.005390 0.000000 
0.033608 -0.005622 0.000000 
0.036301 -0.005819 0.000000 
0.038997 -0.005983 0.000000 
0.041696 -0.006114 0.000000 
0.044396 -0.006215 0.000000 
0.047097 -0.006287 0.000000 
0.049798 -0.006329 0.000000 
0.052500 -0.006343 0.000000 
0.055202 -0.006329 0.000000 
0.057903 -0.006287 0.000000 
0.060604 -0.006215 0.000000 
0.063304 -0.006114 0.000000 
0.066003 -0.005983 0.000000 
0.068699 -0.005819 0.000000 
0.071392 -0.005622 0.000000 
0.074081 -0.005390 0.000000 
0.076764 -0.005122 0.000000 
0.079439 -0.004817 0.000000 
0.082103 -0.004472 0.000000 
0.084754 -0.004089 0.000000 
0.087388 -0.003668 0.000000 
0.090001 -0.003210 0.000000 
0.092587 -0.002720 0.000000 
0.095144 -0.002203 0.000000 
0.097665 -0.001664 0.000000 
0.100150 -0.001113 0.000000 
0.102595 -0.000555 0.000000 
0.002412 -0.000622 0.000000 
0.004866 -0.001247 0.000000 
0.007362 -0.001867 0.000000 
0.009896 -0.002471 0.000000 
0.012466 -0.003049 0.000000 
0.015065 -0.003594 0.000000 
0.017689 -0.004100 0.000000 
0.020331 -0.004563 0.000000 
0.022988 -0.004982 0.000000 
0.025655 -0.005356 0.000000 
0.028329 -0.005687 0.000000 
0.031009 -0.005976 0.000000 
0.033692 -0.006225 0.000000 
0.036377 -0.006436 0.000000 
0.039063 -0.006610 0.000000 
0.041750 -0.006750 0.000000 
0.044437 -0.006858 0.000000 
0.047125 -0.006933 0.000000 
0.049812 -0.006979 0.000000 
0.052500 -0.006994 0.000000 
0.055188 -0.006979 0.000000 
0.057875 -0.006933 0.000000 
0.060563 -0.006858 0.000000 
0.063250 -0.006750 0.000000 
0.065937 -0.006610 0.000000 
0.068623 -0.006436 0.000000 
0.071308 -0.006225 0.000000 
0.073991 -0.005976 0.000000 
0.076671 -0.005687 0.000000 
0.079345 -0.005356 0.000000 
0.082012 -0.004982 0.000000 
0.084669 -0.004563 0.000000 
0.087311 -0.004100 0.000000 
0.089935 -0.003594 0.000000 
0.092534 -0.003049 0.000000 
0.095104 -0.002471 0.000000 
0.097638 -0.001867 0.000000 
0.100134 -0.001247 0.000000 
0.102588 -0.000622 0.000000 
0.002422 -0.000692 0.000000 
0.004889 -0.001391 0.000000 
0.007400 -0.002084 0.000000 
0.009952 -0.002758 0.000000 
0.012539 -0.003400 0.000000 
0.015154 -0.004002 0.000000 
0.017791 -0.004556 0.000000 
0.020442 -0.005059 0.000000 
0.023104 -0.005511 0.000000 
0.025773 -0.005913 0.000000 
0.028445 -0.006266 0.000000 
0.031119 -0.006573 0.000000 
0.033794 -0.006837 0.000000 
0.036468 -0.007059 0.000000 
0.039142 -0.007243 0.000000 
0.041815 -0.007390 0.000000 
0.044487 -0.007503 0.000000 
0.047158 -0.007582 0.000000 
0.049829 -0.007630 0.000000 
0.052500 -0.007645 0.000000 
0.055171 -0.007630 0.000000 
0.057842 -0.007582 0.000000 
0.060513 -0.007503 0.000000 
0.063185 -0.007390 0.000000 
0.065858 -0.007243 0.000000 
0.068532 -0.007059 0.000000 
0.071206 -0.006837 0.000000 
0.073881 -0.006573 0.000000 
0.076555 -0.006266 0.000000 
0.079227 -0.005913 0.000000 
0.081896 -0.005511 0.000000 
0.084558 -0.005059 0.000000 
0.087209 -0.004556 0.000000 
0.089846 -0.004002 0.000000 
0.092461 -0.003400 0.000000 
0.095048 -0.002758 0.000000 
0.097600 -0.002084 0.000000 
0.100111 -0.001391 0.000000 
0.102578 -0.000692 0.000000 
0.002436 -0.000768 0.000000 
0.004922 -0.001548 0.000000 
0.007455 -0.002321 0.000000 
0.010030 -0.003070 0.000000 
0.012639 -0.003779 0.000000 
0.015273 -0.004437 0.000000 
0.017924 -0.005037 0.000000 
0.020586 -0.005578 0.000000 
0.023252 -0.006061 0.000000 
0.025920 -0.006487 0.000000 
0.028587 -0.006859 0.000000 
0.031253 -0.007181 0.000000 
0.033916 -0.007457 0.000000 
0.036577 -0.007689 0.000000 
0.039235 -0.007880 0.000000 
0.041891 -0.008033 0.000000 
0.044545 -0.008150 0.000000 
0.047197 -0.008232 0.000000 
0.049849 -0.008281 0.000000 
0.052500 -0.008297 0.000000 
0.055151 -0.008281 0.000000 
0.057803 -0.008232 0.000000 
0.060455 -0.008150 0.000000 
0.063109 -0.008033 0.000000 
0.065765 -0.007880 0.000000 
0.068423 -0.007689 0.000000 
0.071084 -0.007457 0.000000 
0.073747 -0.007181 0.000000 
0.076413 -0.006859 0.000000 
0.079080 -0.006487 0.000000 
0.081748 -0.006061 0.000000 
0.084414 -0.005578 0.000000 
0.087076 -0.005037 0.000000 
0.089727 -0.004437 0.000000 
0.092361 -0.003779 0.000000 
0.094970 -0.003070 0.000000 
0.097545 -0.002321 0.000000 
0.100078 -0.001548 0.000000 
0.102564 -0.000768 0.000000 
0.002458 -0.000852 0.000000 
0.004969 -0.001723 0.000000 
0.007533 -0.002585 0.000000 
0.010139 -0.003415 0.000000 
0.012776 -0.004192 0.000000 
0.015433 -0.004905 0.000000 
0.018100 -0.005549 0.000000 
0.020769 -0.006124 0.000000 
0.023437 -0.006632 0.000000 
0.026101 -0.007078 0.000000 
0.028760 -0.007465 0.000000 
0.031413 -0.007799 0.000000 
0.034061 -0.008084 0.000000 
0.036704 -0.008323 0.000000 
0.039343 -0.008520 0.000000 
0.041979 -0.008677 0.000000 
0.044612 -0.008797 0.000000 
0.047242 -0.008882 0.000000 
0.049871 -0.008932 0.000000 
0.052500 -0.008948 0.000000 
0.055129 -0.008932 0.000000 
0.057758 -0.008882 0.000000 
0.060388 -0.008797 0.000000 
0.063021 -0.008677 0.000000 
0.065657 -0.008520 0.000000 
0.068296 -0.008323 0.000000 
0.070939 -0.008084 0.000000 
0.073587 -0.007799 0.000000 
0.076240 -0.007465 0.000000 
0.078899 -0.007078 0.000000 
0.081563 -0.006632 0.000000 
0.084231 -0.006124 0.000000 
0.086900 -0.005549 0.000000 
0.089567 -0.004905 0.000000 
0.092224 -0.004192 0.000000 
0.094861 -0.003415 0.000000 
0.097467 -0.002585 0.000000 
0.100031 -0.001723 0.000000 
0.102542 -0.000852 0.000000 
0.002489 -0.000948 0.000000 
0.005040 -0.001922 0.000000 
0.007646 -0.002886 0.000000 
0.010294 -0.003802 0.000000 
0.012966 -0.004647 0.000000 
0.015648 -0.005412 0.000000 
0.018328 -0.006093 0.000000 
0.021002 -0.006695 0.000000 
0.023667 -0.007224 0.000000 
0.026322 -0.007684 0.000000 
0.028966 -0.008083 0.000000 
0.031602 -0.008426 0.000000 
0.034230 -0.008717 0.000000 
0.036852 -0.008961 0.000000 
0.039468 -0.009161 0.000000 
0.042079 -0.009321 0.000000 
0.044687 -0.009443 0.000000 
0.047293 -0.009529 0.000000 
0.049897 -0.009580 0.000000 
0.052500 -0.009597 0.000000 
0.055103 -0.009580 0.000000 
0.057707 -0.009529 0.000000 
0.060313 -0.009443 0.000000 
0.062921 -0.009321 0.000000 
0.065532 -0.009161 0.000000 
0.068148 -0.008961 0.000000 
0.070770 -0.008717 0.000000 
0.073398 -0.008426 0.000000 
0.076034 -0.008083 0.000000 
0.078678 -0.007684 0.000000 
0.081333 -0.007224 0.000000 
0.083998 -0.006695 0.000000 
0.086672 -0.006093 0.000000 
0.089352 -0.005412 0.000000 
0.092034 -0.004647 0.000000 
0.094706 -0.003802 0.000000 
0.097354 -0.002886 0.000000 
0.099960 -0.001922 0.000000 
0.102511 -0.000948 0.000000 
0.002538 -0.001060 0.000000 
0.005147 -0.002160 0.000000 
0.007816 -0.003237 0.000000 
0.010518 -0.004243 0.000000 
0.013230 -0.005153 0.000000 
0.015934 -0.005960 0.000000 
0.018623 -0.006671 0.000000 
0.021294 -0.007293 0.000000 
0.023948 -0.007835 0.000000 
0.026585 -0.008305 0.000000 
0.029209 -0.008710 0.000000 
0.031822 -0.009058 0.000000 
0.034424 -0.009352 0.000000 
0.037019 -0.009599 0.000000 
0.039608 -0.009801 0.000000 
0.042192 -0.009963 0.000000 
0.044772 -0.010086 0.000000 
0.047349 -0.010173 0.000000 
0.049925 -0.010224 0.000000 
0.052500 -0.010241 0.000000 
0.055075 -0.010224 0.000000 
0.057651 -0.010173 0.000000 
0.060228 -0.010086 0.000000 
0.062808 -0.009963 0.000000 
0.065392 -0.009801 0.000000 
0.067981 -0.009599 0.000000 
0.070576 -0.009352 0.000000 
0.073178 -0.009058 0.000000 
0.075791 -0.008710 0.000000 
0.078415 -0.008305 0.000000 
0.081052 -0.007835 0.000000 
0.083706 -0.007293 0.000000 
0.086377 -0.006671 0.000000 
0.089066 -0.005960 0.000000 
0.091770 -0.005153 0.000000 
0.094482 -0.004243 0.000000 
0.097184 -0.003237 0.000000 
0.099853 -0.002160 0.000000 
0.102462 -0.001060 0.000000 
0.002617 -0.001200 0.000000 
0.005320 -0.002457 0.000000 
0.008077 -0.003663 0.000000 
0.010848 -0.004754 0.000000 
0.013596 -0.005714 0.000000 
0.016313 -0.006551 0.000000 
0.018997 -0.007279 0.000000 
0.021653 -0.007911 0.000000 
0.024284 -0.008460 0.000000 
0.026895 -0.008934 0.000000 
0.029489 -0.009342 0.000000 
0.032071 -0.009692 0.000000 
0.034642 -0.009988 0.000000 
0.037205 -0.010235 0.000000 
0.039763 -0.010439 0.000000 
0.042315 -0.010601 0.000000 
0.044864 -0.010724 0.000000 
0.047411 -0.010811 0.000000 
0.049956 -0.010863 0.000000 
0.052500 -0.010880 0.000000 
0.055044 -0.010863 0.000000 
0.057589 -0.010811 0.000000 
0.060136 -0.010724 0.000000 
0.062685 -0.010601 0.000000 
0.065237 -0.010439 0.000000 
0.067795 -0.010235 0.000000 
0.070358 -0.009988 0.000000 
0.072929 -0.009692 0.000000 
0.075511 -0.009342 0.000000 
0.078105 -0.008934 0.000000 
0.080716 -0.008460 0.000000 
0.083347 -0.007911 0.000000 
0.086003 -0.007279 0.000000 
0.088687 -0.006551 0.000000 
0.091404 -0.005714 0.000000 
0.094152 -0.004754 0.000000 
0.096923 -0.003663 0.000000 
0.099680 -0.002457 0.000000 
0.102383 -0.001200 0.000000 
0.002760 -0.001392 0.000000 
0.005615 -0.002856 0.000000 
0.008504 -0.004194 0.000000 
0.011334 -0.005342 0.000000 
0.014098 -0.006328 0.000000 
0.016802 -0.007176 0.000000 
0.019461 -0.007909 0.000000 
0.022083 -0.008544 0.000000 
0.024676 -0.009093 0.000000 
0.027249 -0.009567 0.000000 
0.029804 -0.009975 0.000000 
0.032348 -0.010324 0.000000 
0.034881 -0.010620 0.000000 
0.037408 -0.010867 0.000000 
0.039930 -0.011071 0.000000 
0.042448 -0.011233 0.000000 
0.044963 -0.011356 0.000000 
0.047476 -0.011443 0.000000 
0.049988 -0.011494 0.000000 
0.052500 -0.011512 0.000000 
0.055012 -0.011494 0.000000 
0.057524 -0.011443 0.000000 
0.060037 -0.011356 0.000000 
0.062552 -0.011233 0.000000 
0.065070 -0.011071 0.000000 
0.067592 -0.010867 0.000000 
0.070119 -0.010620 0.000000 
0.072652 -0.010324 0.000000 
0.075196 -0.009975 0.000000 
0.077751 -0.009567 0.000000 
0.080324 -0.009093 0.000000 
0.082917 -0.008544 0.000000 
0.085539 -0.007909 0.000000 
0.088198 -0.007176 0.000000 
0.090902 -0.006328 0.000000 
0.093666 -0.005342 0.000000 
0.096496 -0.004194 0.000000 
0.099385 -0.002856 0.000000 
0.102240 -0.001392 0.000000 
0.003039 -0.001716 0.000000 
0.006222 -0.003446 0.000000 
0.009205 -0.004831 0.000000 
0.012035 -0.005992 0.000000 
0.014760 -0.006976 0.000000 
0.017414 -0.007821 0.000000 
0.020016 -0.008549 0.000000 
0.022582 -0.009180 0.000000 
0.025122 -0.009725 0.000000 
0.027643 -0.010197 0.000000 
0.030150 -0.010603 0.000000 
0.032647 -0.010951 0.000000 
0.035138 -0.011246 0.000000 
0.037624 -0.011492 0.000000 
0.040106 -0.011695 0.000000 
0.042587 -0.011857 0.000000 
0.045066 -0.011980 0.000000 
0.047544 -0.012067 0.000000 
0.050022 -0.012118 0.000000 
0.052500 -0.012135 0.000000 
0.054978 -0.012118 0.000000 
0.057456 -0.012067 0.000000 
0.059934 -0.011980 0.000000 
0.062413 -0.011857 0.000000 
0.064894 -0.011695 0.000000 
0.067376 -0.011492 0.000000 
0.069862 -0.011246 0.000000 
0.072353 -0.010951 0.000000 
0.074850 -0.010603 0.000000 
0.077357 -0.010197 0.000000 
0.079878 -0.009725 0.000000 
0.082418 -0.009180 0.000000 
0.084984 -0.008549 0.000000 
0.087586 -0.007821 0.000000 
0.090240 -0.006976 0.000000 
0.092965 -0.005992 0.000000 
0.095795 -0.004831 0.000000 
0.098778 -0.003446 0.000000 
0.101961 -0.001716 0.000000 
</DataArray>
<DataArray type="Float64" Name="residual" NumberOfComponents="3" format="ascii" >
-3462.208992 -1005.831152 0.000000 
3462.208992 -1005.831152 0.000000 
3462.208992 1005.831152 0.000000 
-3462.208992 1005.831152 0.000000 
-0.000000 -0.000000 0.000000 
-0.000000 0.000000 0.000000 
-0.000000 0.000000 0.000000 
0.000000 -0.000000 0.000000 
0.000000 0.000000 0.000000 
-0.000000 0.000000 0.000000 
-0.000000 0.000000 0.000000 
-0.000000 -0.000000 0.000000 
-0.000000 0.000000 0.000000 
-0.000000 -0.000000 0.000000 
-0.000000 0.000000 0.000000 
-0.000000 0.000000 0.000000 
-0.000000 -0.000000 0.000000 
-0.000000 0.000000 0.000000 
-0.000000 0.000000 0.000000 
0.000000 -0.000000 0.000000 
-0.000000 0.000000 0.000000 
-0.000000 0.000000 0.000000 
0.000000 -0.000000 0.000000 
-0.000000 0.000000 0.000000 
0.000000 0.000000 0.000000 
0.000000 0.000000 0.000000 
0.000000 0.000000 0.000000 
0.000000 0.000000 0.000000 
0.000000 0.000000 0.000000 
-0.000000 -0.000000 0.000000 
0.000000 0.000000 0.000000 
0.000000 0.000000 0.000000 
-0.000000 0.000000 0.000000 
-0.000000 -0.000000 0.000000 
-0.000000 -0.000000 0.000000 
-0.000000 -0.000000 0.000000 
-0.000000 -0.000000 0.000000 
0.000000 -0.000000 0.000000 
-0.000000 0.000000 0.000000 
-0.000000 -0.000000 0.000000 
-0.000000 -0.000000 0.000000 
-0.000000 0.000000 0.000000 
-0.000000 0.000000 0.000000 
4875.290778 832.128991 0.000000 
4307.751395 772.565137 0.000000 
4099.486117 679.009569 0.000000 
3981.617891 610.174353 0.000000 
3910.574528 551.003933 0.000000 
3864.807480 498.963162 0.000000 
3834.454130 451.863744 0.000000 
3814.010901 408.442883 0.000000 
3800.208389 367.827918 0.000000 
3790.967485 329.401179 0.000000 
3784.903592 292.705097 0.000000 
3781.059592 257.390238 0.000000 
3778.754925 223.182341 0.000000 
3777.495571 189.860852 0.000000 
3776.918266 157.244240 0.000000 
3776.754817 125.179583 0.000000 
3776.808777 93.534897 0.000000 
3776.940038 62.193284 0.000000 
3777.054722 31.048283 0.000000 
3777.098826 0.000000 0.000000 
3777.054722 -31.048283 0.000000 
3776.940038 -62.193284 0.000000 
3776.808777 -93.534897 0.000000 
3776.754817 -125.179583 0.000000 
3776.918266 -157.244240 0.000000 
3777.495571 -189.860852 0.000000 
3778.754925 -223.182341 0.000000 
3781.059592 -257.390238 0.000000 
3784.903592 -292.705097 0.000000 
3790.967485 -329.401179 0.000000 
3800.208389 -367.827918 0.000000 
3814.010901 -408.442883 0.000000 
3834.454130 -451.863744 0.000000 
3864.807480 -498.963162 0.000000 
3910.574528 -551.003933 0.000000 
3981.617891 -610.174353 0.000000 
4099.486117 -679.009569 0.000000 
4307.751395 -772.565137 0.000000 
4875.290778 -832.128991 0.000000 
-0.000000 -0.000000 0.000000 
-0.000000 0.000000 0.000000 
-0.000000 0.000000 0.000000 
0.000000 0.000000 0.000000 
-0.000000 -0.000000 0.000000 
0.000000 0.000000 0.000000 
0.000000 -0.000000 0.000000 
-0.000000 0.000000 0.000000 
-0.000000 -0.000000 0.000000 
-0.000000 -0.000000 0.000000 
-0.000000 0.000000 0.000000 
-0.000000 0.000000 0.000000 
-0.000000 -0.000000 0.000000 
0.000000 -0.000000 0.000000 
-0.000000 -0.000000 0.000000 
-0.000000 -0.000000 0.000000 
-0.000000 0.000000 0.000000 
-0.000000 -0.000000 0.000000 
0.000000 0.000000 0.000000 
0.000000 -0.000000 0.000000 
-0.000000 -0.000000 0.000000 
-0.000000 -0.000000 0.000000 
0.000000 -0.000000 0.000000 
-0.000000 -0.000000 0.000000 
0.000000 -0.000000 0.000000 
0.000000 0.000000 0.000000 
0.000000 -0.000000 0.000000 
0.000000 0.000000 0.000000 
-0.000000 -0.000000 0.000000 
0.000000 -0.000000 0.000000 
0.000000 -0.000000 0.000000 
0.000000 0.000000 0.000000 
-0.000000 0.000000 0.000000 
-0.000000 -0.000000 0.000000 
-0.000000 -0.000000 0.000000 
-0.000000 -0.000000 0.000000 
0.000000 -0.000000 0.000000 
0.000000 -0.000000 0.000000 
0.000000 -0.000000 0.000000 
-4875.290778 -832.128991 0.000000 
-4307.751395 -772.565137 0.000000 
-4099.486117 -679.009569 0.000000 
-3981.617891 -610.174353 0.000000 
-3910.574528 -551.003933 0.000000 
-3864.807480 -498.963162 0.000000 
-3834.454130 -451.863744 0.000000 
-3814.010901 -408.442883 0.000000 
-3800.208389 -367.827918 0.000000 
-3790.967485 -329.401179 0.000000 
-3784.903592 -292.705097 0.000000 
-3781.059592 -257.390238 0.000000 
-3778.754925 -223.182341 0.000000 
-3777.495571 -189.860852 0.000000 
-3776.918266 -157.244240 0.000000 
-3776.754817 -125.179583 0.000000 
-3776.808777 -93.534897 0.000000 
-3776.940038 -62.193284 0.000000 
-3777.054722 -31.048283 0.000000 
-3777.098826 -0.000000 0.000000 
-3777.054722 31.048283 0.000000 
-3776.940038 62.193284 0.000000 
-3776.808777 93.534897 0.000000 
-3776.754817 125.179583 0.000000 
-3776.918266 157.244240 0.000000 
-3777.495571 189.860852 0.000000 
-3778.754925 223.182341 0.000000 
-3781.059592 257.390238 0.000000 
-3784.903592 292.705097 0.000000 
-3790.967485 329.401179 0.000000 
-3800.208389 367.827918 0.000000 
-3814.010901 408.442883 0.000000 
-3834.454130 451.863744 0.000000 
-3864.807480 498.963162 0.000000 
-3910.574528 551.003933 0.000000 
-3981.617891 610.174353 0.000000 
-4099.486117 679.009569 0.000000 
-4307.751395 772.565137 0.000000 
-4875.290778 832.128991 0.000000 
0.000000 0.000000 0.000000 
-0.000000 0.000000 0.000000 
0.000000 0.000000 0.000000 
0.000000 -0.000000 0.000000 
0.000000 -0.000000 0.000000 
0.000000 0.000000 0.000000 
0.000000 -0.000000 0.000000 
-0.000000 0.000000 0.000000 
0.000000 0.000000 0.000000 
-0.000000 -0.000000 0.000000 
0.000000 -0.000000 0.000000 
0.000000 0.000000 0.000000 
-0.000000 0.000000 0.000000 
0.000000 0.000000 0.000000 
-0.000000 0.000000 0.000000 
0.000000 0.000000 0.000000 
-0.000000 0.000000 0.000000 
0.000000 -0.000000 0.000000 
-0.000000 0.000000 0.000000 
0.000000 -0.000000 0.000000 
0.000000 -0.000000 0.000000 
0.000000 -0.000000 0.000000 
0.000000 -0.000000 0.000000 
0.000000 0.000000 0.000000 
0.000000 0.000000 0.000000 
0.000000 0.000000 0.000000 
-0.000000 0.000000 0.000000 
0.000000 -0.000000 0.000000 
-0.000000 -0.000000 0.000000 
-0.000000 0.000000 0.000000 
-0.000000 0.000000 0.000000 
0.000000 -0.000000 0.000000 
-0.000000 -0.000000 0.000000 
0.000000 -0.000000 0.000000 
-0.000000 0.000000 0.000000 
-0.000000 -0.000000 0.000000 
-0.000000 -0.000000 0.000000 
0.000000 -0.000000 0.000000 
0.000000 -0.000000 0.000000 
0.000000 -0.000000 0.000000 
0.000000 -0.000000 0.000000 
-0.000000 -0.000000 0.000000 
-0.000000 0.000000 0.000000 
0.000000 0.000000 0.000000 
0.000000 -0.000000 0.000000 
-0.000000 0.000000 0.000000 
-0.000000 0.000000 0.000000 
-0.000000 0.000000 0.000000 
0.000000 0.000000 0.000000 
0.000000 -0.000000 0.000000 
0.000000 0.000000 0.000000 
0.000000 -0.000000 0.000000 
-0.000000 -0.000000 0.000000 
-0.000000 0.000000 0.000000 
-0.000000 -0.000000 0.000000 
-0.000000 0.000000 0.000000 
-0.000000 0.000000 0.000000 
0.000000 -0.000000 0.000000 
-0.000000 0.000000 0.000000 
0.000000 -0.000000 0.000000 
-0.000000 0.000000 0.000000 
0.000000 0.000000 0.000000 
0.000000 0.000000 0.000000 
-0.000000 -0.000000 0.000000 
0.000000 -0.000000 0.000000 
-0.000000 0.000000 0.000000 
-0.000000 -0.000000 0.000000 
-0.000000 -0.000000 0.000000 
-0.000000 0.000000 0.000000 
0.000000 0.000000 0.000000 
0.000000 0.000000 0.000000 
-0.000000 0.000000 0.000000 
0.000000 0.000000 0.000000 
-0.000000 -0.000000 0.000000 
-0.000000 0.000000 0.000000 
0.000000 -0.000000 0.000000 
-0.000000 0.000000 0.000000 
-0.000000 0.000000 0.000000 
0.000000 -0.000000 0.000000 
-0.000000 0.000000 0.000000 
0.000000 -0.000000 0.000000 
0.000000 -0.000000 0.000000 
0.000000 0.000000 0.000000 
0.000000 -0.000000 0.000000 
0.000000 0.000000 0.000000 
0.000000 0.000000 0.000000 
-0.000000 0.000000 0.000000 
-0.000000 0.000000 0.000000 
-0.000000 0.000000 0.000000 
0.000000 -0.000000 0.000000 
0.000000 -0.000000 0.000000 
-0.000000 -0.000000 0.000000 
-0.000000 -0.000000 0.000000 
-0.000000 0.000000 0.000000 
0.000000 -0.000000 0.000000 
-0.000000 0.000000 0.000000 
-0.000000 0.000000 0.000000 
-0.000000 -0.000000 0.000000 
0.000000 -0.000000 0.000000 
0.000000 0.000000 0.000000 
-0.000000 -0.000000 0.000000 
0.000000 0.000000 0.000000 
0.000000 -0.000000 0.000000 
0.000000 0.000000 0.000000 
0.000000 -0.000000 0.000000 
0.000000 -0.000000 0.000000 
-0.000000 -0.000000 0.000000 
-0.000000 0.000000 0.000000 
-0.000000 -0.000000 0.000000 
-0.000000 -0.000000 0.000000 
0.000000 -0.000000 0.000000 
-0.000000 0.000000 0.000000 
-0.000000 -0.000000 0.000000 
0.000000 0.000000 0.000000 
-0.000000 -0.000000 0.000000 
-0.000000 -0.000000 0.000000 
0.000000 -0.000000 0.000000 
-0.000000 -0.000000 0.000000 
0.000000 0.000000 0.000000 
-0.000000 0.000000 0.000000 
-0.000000 -0.000000 0.000000 
-0.000000 0.000000 0.000000 
-0.000000 0.000000 0.000000 
0.000000 0.000000 0.000000 
-0.000000 -0.000000 0.000000 
-0.000000 0.000000 0.000000 
-0.000000 -0.000000 0.000000 
0.000000 0.000000 0.000000 
-0.000000 -0.000000 0.000000 
-0.000000 0.000000 0.000000 
0.000000 -0.000000 0.000000 
-0.000000 0.000000 0.000000 
0.000000 0.000000 0.000000 
-0.000000 0.000000 0.000000 
0.000000 -0.000000 0.000000 
-0.000000 -0.000000 0.000000 
0.000000 0.000000 0.000000 
0.000000 -0.000000 0.000000 
0.000000 -0.000000 0.000000 
-0.000000 0.000000 0.000000 
-0.000000 0.000000 0.000000 
0.000000 -0.000000 0.000000 
0.000000 0.000000 0.000000 
-0.000000 -0.000000 0.000000 
0.000000 -0.000000 0.000000 
0.000000 -0.000000 0.000000 
0.000000 -0.000000 0.000000 
-0.000000 0.000000 0.000000 
0.000000 0.000000 0.000000 
-0.000000 -0.000000 0.000000 
0.000000 0.000000 0.000000 
0.000000 -0.000000 0.000000 
-0.000000 -0.000000 0.000000 
0.000000 -0.000000 0.000000 
-0.000000 -0.000000 0.000000 
-0.000000 0.000000 0.000000 
-0.000000 0.000000 0.000000 
0.000000 0.000000 0.000000 
-0.000000 -0.000000 0.000000 
0.000000 -0.000000 0.000000 
-0.000000 -0.000000 0.000000 
0.000000 0.000000 0.000000 
0.000000 -0.000000 0.000000 
-0.000000 -0.000000 0.000000 
-0.000000 0.000000 0.000000 
0.000000 -0.000000 0.000000 
-0.000000 -0.000000 0.000000 
0.000000 -0.000000 0.000000 
-0.000000 -0.000000 0.000000 
-0.000000 0.000000 0.000000 
-0.000000 -0.000000 0.000000 
0.000000 -0.000000 0.000000 
0.000000 -0.000000 0.000000 
-0.000000 -0.000000 0.000000 
0.000000 -0.000000 0.000000 
0.000000 -0.000000 0.000000 
-0.000000 0.000000 0.000000 
0.000000 0.000000 0.000000 
-0.000000 -0.000000 0.000000 
0.000000 0.000000 0.000000 
0.000000 0.000000 0.000000 
0.000000 0.000000 0.000000 
0.000000 0.000000 0.000000 
0.000000 0.000000 0.000000 
-0.000000 0.000000 0.000000 
-0.000000 0.000000 0.000000 
0.000000 -0.000000 0.000000 
-0.000000 0.000000 0.000000 
-0.000000 0.000000 0.000000 
-0.000000 0.000000 0.000000 
-0.000000 -0.000000 0.000000 
-0.000000 0.000000 0.000000 
0.000000 -0.000000 0.000000 
-0.000000 0.000000 0.000000 
-0.000000 -0.000000 0.000000 
-0.000000 0.000000 0.000000 
-0.000000 -0.000000 0.000000 
0.000000 0.000000 0.000000 
0.000000 -0.000000 0.000000 
-0.000000 0.000000 0.000000 
-0.000000 -0.000000 0.000000 
-0.000000 0.000000 0.000000 
-0.000000 -0.000000 0.000000 
0.000000 0.000000 0.000000 
0.000000 0.000000 0.000000 
0.000000 0.000000 0.000000 
0.000000 -0.000000 0.000000 
-0.000000 -0.000000 0.000000 
-0.000000 0.000000 0.000000 
-0.000000 -0.000000 0.000000 
0.000000 -0.000000 0.000000 
-0.000000 0.000000 0.000000 
0.000000 -0.000000 0.000000 
0.000000 0.000000 0.000000 
-0.000000 -0.000000 0.000000 
-0.000000 -0.000000 0.000000 
-0.000000 0.000000 0.000000 
0.000000 -0.000000 0.000000 
0.000000 -0.000000 0.000000 
0.000000 -0.000000 0.000000 
-0.000000 0.000000 0.000000 
0.000000 -0.000000 0.000000 
-0.000000 -0.000000 0.000000 
0.000000 0.000000 0.000000 
-0.000000 0.000000 0.000000 
-0.000000 0.000000 0.000000 
-0.000000 -0.000000 0.000000 
0.000000 0.000000 0.000000 
-0.000000 0.000000 0.000000 
0.000000 0.000000 0.000000 
0.000000 -0.000000 0.000000 
-0.000000 -0.000000 0.000000 
0.000000 -0.000000 0.000000 
-0.000000 -0.000000 0.000000 
-0.000000 -0.000000 0.000000 
-0.000000 -0.000000 0.000000 
0.000000 0.000000 0.000000 
0.000000 -0.000000 0.000000 
-0.000000 0.000000 0.000000 
-0.000000 -0.000000 0.000000 
-0.000000 -0.000000 0.000000 
-0.000000 0.000000 0.000000 
0.000000 -0.000000 0.000000 
-0.000000 0.000000 0.000000 
0.000000 -0.000000 0.000000 
0.000000 0.000000 0.000000 
-0.000000 -0.000000 0.000000 
0.000000 0.000000 0.000000 
-0.000000 -0.000000 0.000000 
-0.000000 -0.000000 0.000000 
0.000000 -0.000000 0.000000 
-0.000000 -0.000000 0.000000 
0.000000 -0.000000 0.000000 
-0.000000 -0.000000 0.000000 
0.000000 -0.000000 0.000000 
0.000000 -0.000000 0.000000 
-0.000000 -0.000000 0.000000 
-0.000000 0.000000 0.000000 
0.000000 0.000000 0.000000 
0.000000 0.000000 0.000000 
-0.000000 0.000000 0.000000 
0.000000 -0.000000 0.000000 
-0.000000 -0.000000 0.000000 
0.000000 -0.000000 0.000000 
-0.000000 -0.000000 0.000000 
-0.000000 0.000000 0.000000 
0.000000 -0.000000 0.000000 
-0.000000 0.000000 0.000000 
-0.000000 -0.000000 0.000000 
-0.000000 -0.000000 0.000000 
0.000000 -0.000000 0.000000 
-0.000000 0.000000 0.000000 
-0.000000 0.000000 0.000000 
-0.000000 0.000000 0.000000 
-0.000000 0.000000 0.000000 
0.000000 0.000000 0.000000 
0.000000 -0.000000 0.000000 
-0.000000 -0.000000 0.000000 
0.000000 -0.000000 0.000000 
0.000000 -0.000000 0.000000 
-0.000000 -0.000000 0.000000 
0.000000 0.000000 0.000000 
-0.000000 -0.000000 0.000000 
-0.000000 -0.000000 0.000000 
-0.000000 0.000000 0.000000 
-0.000000 0.000000 0.000000 
0.000000 -0.000000 0.000000 
0.000000 -0.000000 0.000000 
0.000000 -0.000000 0.000000 
0.000000 -0.000000 0.000000 
-0.000000 0.000000 0.000000 
-0.000000 -0.000000 0.000000 
-0.000000 -0.000000 0.000000 
0.000000 -0.000000 0.000000 
0.000000 -0.000000 0.000000 
0.000000 -0.000000 0.000000 
0.000000 0.000000 0.000000 
-0.000000 -0.000000 0.000000 
0.000000 -0.000000 0.000000 
-0.000000 -0.000000 0.000000 
-0.000000 0.000000 0.000000 
0.000000 0.000000 0.000000 
-0.000000 0.000000 0.000000 
0.000000 0.000000 0.000000 
0.000000 0.000000 0.000000 
0.000000 -0.000000 0.000000 
-0.000000 -0.000000 0.000000 
0.000000 -0.000000 0.000000 
-0.000000 0.000000 0.000000 
0.000000 -0.000000 0.000000 
0.000000 -0.000000 0.000000 
-0.000000 -0.000000 0.000000 
-0.000000 0.000000 0.000000 
-0.000000 0.000000 0.000000 
-0.000000 -0.000000 0.000000 
0.000000 -0.000000 0.000000 
-0.000000 0.000000 0.000000 
-0.000000 0.000000 0.000000 
-0.000000 0.000000 0.000000 
0.000000 0.000000 0.000000 
-0.000000 -0.000000 0.000000 
-0.000000 0.000000 0.000000 
0.000000 0.000000 0.000000 
0.000000 -0.000000 0.000000 
0.000000 -0.000000 0.000000 
-0.000000 0.000000 0.000000 
-0.000000 -0.000000 0.000000 
-0.000000 -0.000000 0.000000 
0.000000 -0.000000 0.000000 
-0.000000 -0.000000 0.000000 
-0.000000 -0.000000 0.000000 
0.000000 0.000000 0.000000 
-0.000000 0.000000 0.000000 
-0.000000 -0.000000 0.000000 
-0.000000 0.000000 0.000000 
0.000000 -0.000000 0.000000 
-0.000000 -0.000000 0.000000 
-0.000000 0.000000 0.000000 
-0.000000 0.000000 0.000000 
0.000000 0.000000 0.000000 
-0.000000 0.000000 0.000000 
-0.000000 0.000000 0.000000 
-0.000000 0.000000 0.000000 
0.000000 -0.000000 0.000000 
-0.000000 -0.000000 0.000000 
-0.000000 0.000000 0.000000 
0.000000 0.000000 0.000000 
-0.000000 -0.000000 0.000000 
0.000000 -0.000000 0.000000 
-0.000000 -0.000000 0.000000 
0.000000 0.000000 0.000000 
0.000000 0.000000 0.000000 
0.000000 0.000000 0.000000 
-0.000000 -0.000000 0.000000 
0.000000 -0.000000 0.000000 
0.000000 0.000000 0.000000 
0.000000 0.000000 0.000000 
-0.000000 -0.000000 0.000000 
-0.000000 0.000000 0.000000 
-0.000000 -0.000000 0.000000 
-0.000000 0.000000 0.000000 
0.000000 0.000000 0.000000 
-0.000000 -0.000000 0.000000 
-0.000000 0.000000 0.000000 
-0.000000 0.000000 0.000000 
-0.000000 0.000000 0.000000 
-0.000000 0.000000 0.000000 
0.000000 -0.000000 0.000000 
0.000000 0.000000 0.000000 
0.000000 0.000000 0.000000 
0.000000 0.000000 0.000000 
-0.000000 -0.000000 0.000000 
-0.000000 -0.000000 0.000000 
-0.000000 0.000000 0.000000 
0.000000 -0.000000 0.000000 
0.000000 -0.000000 0.000000 
0.000000 0.000000 0.000000 
-0.000000 -0.000000 0.000000 
-0.000000 -0.000000 0.000000 
0.000000 -0.000000 0.000000 
-0.000000 -0.000000 0.000000 
-0.000000 -0.000000 0.000000 
0.000000 0.000000 0.000000 
0.000000 -0.000000 0.000000 
-0.000000 -0.000000 0.000000 
-0.000000 0.000000 0.000000 
-0.000000 0.000000 0.000000 
0.000000 -0.000000 0.000000 
0.000000 0.000000 0.000000 
0.000000 0.000000 0.000000 
-0.000000 -0.000000 0.000000 
0.000000 0.000000 0.000000 
-0.000000 -0.000000 0.000000 
0.000000 0.000000 0.000000 
-0.000000 0.000000 0.000000 
-0.000000 -0.000000 0.000000 
-0.000000 -0.000000 0.000000 
-0.000000 0.000000 0.000000 
-0.000000 -0.000000 0.000000 
0.000000 0.000000 0.000000 
-0.000000 0.000000 0.000000 
0.000000 0.000000 0.000000 
-0.000000 0.000000 0.000000 
-0.000000 -0.000000 0.000000 
0.000000 0.000000 0.000000 
-0.000000 -0.000000 0.000000 
-0.000000 0.000000 0.000000 
-0.000000 0.000000 0.000000 
0.000000 0.000000 0.000000 
-0.000000 0.000000 0.000000 
-0.000000 -0.000000 0.000000 
0.000000 -0.000000 0.000000 
-0.000000 -0.000000 0.000000 
0.000000 -0.000000 0.000000 
0.000000 0.000000 0.000000 
0.000000 0.000000 0.000000 
0.000000 -0.000000 0.000000 
0.000000 -0.000000 0.000000 
0.000000 -0.000000 0.000000 
0.000000 0.000000 0.000000 
-0.000000 0.000000 0.000000 
0.000000 0.000000 0.000000 
-0.000000 -0.000000 0.000000 
-0.000000 0.000000 0.000000 
-0.000000 -0.000000 0.000000 
-0.000000 -0.000000 0.000000 
0.000000 0.000000 0.000000 
-0.000000 0.000000 0.000000 
-0.000000 -0.000000 0.000000 
0.000000 0.000000 0.000000 
0.000000 0.000000 0.000000 
-0.000000 0.000000 0.000000 
0.000000 0.000000 0.000000 
-0.000000 -0.000000 0.000000 
-0.000000 0.000000 0.000000 
0.000000 0.000000 0.000000 
-0.000000 0.000000 0.000000 
0.000000 0.000000 0.000000 
0.000000 0.000000 0.000000 
0.000000 -0.000000 0.000000 
0.000000 0.000000 0.000000 
-0.000000 -0.000000 0.000000 
0.000000 0.000000 0.000000 
-0.000000 -0.000000 0.000000 
0.000000 0.000000 0.000000 
-0.000000 0.000000 0.000000 
0.000000 0.000000 0.000000 
0.000000 0.000000 0.000000 
-0.000000 -0.000000 0.000000 
-0.000000 0.000000 0.000000 
0.000000 0.000000 0.000000 
-0.000000 0.000000 0.000000 
0.000000 0.000000 0.000000 
-0.000000 0.000000 0.000000 
-0.000000 -0.000000 0.000000 
-0.000000 0.000000 0.000000 
0.000000 0.000000 0.000000 
0.000000 0.000000 0.000000 
-0.000000 -0.000000 0.000000 
-0.000000 0.000000 0.000000 
-0.000000 -0.000000 0.000000 
-0.000000 -0.000000 0.000000 
-0.000000 0.000000 0.000000 
0.000000 0.000000 0.000000 
-0.000000 0.000000 0.000000 
-0.000000 0.000000 0.000000 
0.000000 -0.000000 0.000000 
-0.000000 0.000000 0.000000 
0.000000 -0.000000 0.000000 
0.000000 -0.000000 0.000000 
-0.000000 -0.000000 0.000000 
0.000000 0.000000 0.000000 
-0.000000 -0.000000 0.000000 
-0.000000 -0.000000 0.000000 
0.000000 0.000000 0.000000 
0.000000 0.000000 0.000000 
-0.000000 -0.000000 0.000000 
-0.000000 -0.000000 0.000000 
-0.000000 -0.000000 0.000000 
0.000000 -0.000000 0.000000 
0.000000 0.000000 0.000000 
-0.000000 0.000000 0.000000 
0.000000 0.000000 0.000000 
-0.000000 0.000000 0.000000 
-0.000000 0.000000 0.000000 
0.000000 -0.000000 0.000000 
0.000000 -0.000000 0.000000 
-0.000000 0.000000 0.000000 
-0.000000 -0.000000 0.000000 
0.000000 -0.000000 0.000000 
-0.000000 0.000000 0.000000 
0.000000 0.000000 0.000000 
-0.000000 0.000000 0.000000 
0.000000 0.000000 0.000000 
0.000000 0.000000 0.000000 
0.000000 -0.000000 0.000000 
0.000000 0.000000 0.000000 
-0.000000 -0.000000 0.000000 
0.000000 0.000000 0.000000 
0.000000 -0.000000 0.000000 
0.000000 -0.000000 0.000000 
0.000000 -0.000000 0.000000 
0.000000 0.000000 0.000000 
0.000000 0.000000 0.000000 
-0.000000 0.000000 0.000000 
0.000000 0.000000 0.000000 
-0.000000 0.000000 0.000000 
0.000000 -0.000000 0.000000 
-0.000000 -0.000000 0.000000 
0.000000 -0.000000 0.000000 
0.000000 -0.000000 0.000000 
0.000000 -0.000000 0.000000 
-0.000000 -0.000000 0.000000 
0.000000 -0.000000 0.000000 
-0.000000 -0.000000 0.000000 
0.000000 0.000000 0.000000 
-0.000000 -0.000000 0.000000 
0.000000 0.000000 0.000000 
-0.000000 0.000000 0.000000 
-0.000000 -0.000000 0.000000 
0.000000 -0.000000 0.000000 
-0.000000 -0.000000 0.000000 
-0.000000 -0.000000 0.000000 
0.000000 0.000000 0.000000 
-0.000000 0.000000 0.000000 
0.000000 0.000000 0.000000 
0.000000 -0.000000 0.000000 
0.000000 0.000000 0.000000 
-0.000000 0.000000 0.000000 
0.000000 -0.000000 0.000000 
0.000000 0.000000 0.000000 
0.000000 -0.000000 0.000000 
0.000000 0.000000 0.000000 
0.000000 -0.000000 0.000000 
0.000000 -0.000000 0.000000 
-0.000000 -0.000000 0.000000 
0.000000 -0.000000 0.000000 
-0.000000 0.000000 0.000000 
0.000000 0.000000 0.000000 
0.000000 0.000000 0.000000 
0.000000 0.000000 0.000000 
-0.000000 0.000000 0.000000 
0.000000 0.000000 0.000000 
-0.000000 -0.000000 0.000000 
0.000000 -0.000000 0.000000 
-0.000000 -0.000000 0.000000 
0.000000 0.000000 0.000000 
0.000000 0.000000 0.000000 
-0.000000 0.000000 0.000000 
0.000000 0.000000 0.000000 
-0.000000 -0.000000 0.000000 
0.000000 -0.000000 0.000000 
-0.000000 -0.000000 0.000000 
0.000000 0.000000 0.000000 
0.000000 -0.000000 0.000000 
0.000000 -0.000000 0.000000 
0.000000 -0.000000 0.000000 
0.000000 -0.000000 0.000000 
0.000000 0.000000 0.000000 
-0.000000 -0.000000 0.000000 
0.000000 0.000000 0.000000 
-0.000000 0.000000 0.000000 
0.000000 0.000000 0.000000 
0.000000 0.000000 0.000000 
-0.000000 0.000000 0.000000 
0.000000 0.000000 0.000000 
0.000000 -0.000000 0.000000 
-0.000000 -0.000000 0.000000 
0.000000 0.000000 0.000000 
-0.000000 -0.000000 0.000000 
-0.000000 -0.000000 0.000000 
0.000000 -0.000000 0.000000 
-0.000000 0.000000 0.000000 
0.000000 -0.000000 0.000000 
0.000000 0.000000 0.000000 
-0.000000 -0.000000 0.000000 
0.000000 0.000000 0.000000 
-0.000000 0.000000 0.000000 
-0.000000 0.000000 0.000000 
0.000000 -0.000000 0.000000 
-0.000000 -0.000000 0.000000 
0.000000 0.000000 0.000000 
0.000000 -0.000000 0.000000 
-0.000000 -0.000000 0.000000 
-0.000000 -0.000000 0.000000 
0.000000 -0.000000 0.000000 
-0.000000 -0.000000 0.000000 
-0.000000 -0.000000 0.000000 
0.000000 -0.000000 0.000000 
-0.000000 0.000000 0.000000 
0.000000 0.000000 0.000000 
-0.000000 0.000000 0.000000 
-0.000000 0.000000 0.000000 
0.000000 0.000000 0.000000 
0.000000 0.000000 0.000000 
-0.000000 0.000000 0.000000 
-0.000000 -0.000000 0.000000 
-0.000000 0.000000 0.000000 
-0.000000 0.000000 0.000000 
0.000000 0.000000 0.000000 
-0.000000 -0.000000 0.000000 
0.000000 0.000000 0.000000 
-0.000000 -0.000000 0.000000 
-0.000000 0.000000 0.000000 
0.000000 -0.000000 0.000000 
0.000000 0.000000 0.000000 
0.000000 -0.000000 0.000000 
0.000000 0.000000 0.000000 
0.000000 0.000000 0.000000 
-0.000000 0.000000 0.000000 
-0.000000 0.000000 0.000000 
-0.000000 -0.000000 0.000000 
0.000000 0.000000 0.000000 
0.000000 0.000000 0.000000 
0.000000 0.000000 0.000000 
-0.000000 -0.000000 0.000000 
0.000000 -0.000000 0.000000 
0.000000 -0.000000 0.000000 
0.000000 -0.000000 0.000000 
-0.000000 0.000000 0.000000 
-0.000000 -0.000000 0.000000 
-0.000000 0.000000 0.000000 
-0.000000 0.000000 0.000000 
-0.000000 -0.000000 0.000000 
-0.000000 -0.000000 0.000000 
-0.000000 0.000000 0.000000 
0.000000 -0.000000 0.000000 
0.000000 0.000000 0.000000 
-0.000000 -0.000000 0.000000 
-0.000000 -0.000000 0.000000 
-0.000000 -0.000000 0.000000 
0.000000 0.000000 0.000000 
0.000000 -0.000000 0.000000 
-0.000000 -0.000000 0.000000 
0.000000 -0.000000 0.000000 
-0.000000 -0.000000 0.000000 
0.000000 -0.000000 0.000000 
-0.000000 -0.000000 0.000000 
-0.000000 0.000000 0.000000 
-0.000000 -0.000000 0.000000 
0.000000 0.000000 0.000000 
-0.000000 -0.000000 0.000000 
-0.000000 0.000000 0.000000 
0.000000 -0.000000 0.000000 
-0.000000 -0.000000 0.000000 
0.000000 -0.000000 0.000000 
-0.000000 -0.000000 0.000000 
-0.000000 -0.000000 0.000000 
0.000000 0.000000 0.000000 
-0.000000 0.000000 0.000000 
-0.000000 -0.000000 0.000000 
0.000000 -0.000000 0.000000 
0.000000 -0.000000 0.000000 
0.000000 0.000000 0.000000 
-0.000000 -0.000000 0.000000 
0.000000 0.000000 0.000000 
0.000000 -0.000000 0.000000 
-0.000000 -0.000000 0.000000 
-0.000000 0.000000 0.000000 
0.000000 0.000000 0.000000 
-0.000000 -0.000000 0.000000 
-0.000000 0.000000 0.000000 
-0.000000 0.000000 0.000000 
-0.000000 -0.000000 0.000000 
-0.000000 0.000000 0.000000 
-0.000000 0.000000 0.000000 
-0.000000 -0.000000 0.000000 
-0.000000 -0.000000 0.000000 
-0.000000 -0.000000 0.000000 
0.000000 -0.000000 0.000000 
-0.000000 -0.000000 0.000000 
0.000000 0.000000 0.000000 
-0.000000 0.000000 0.000000 
0.000000 -0.000000 0.000000 
0.000000 -0.000000 0.000000 
0.000000 0.000000 0.000000 
0.000000 -0.000000 0.000000 
-0.000000 -0.000000 0.000000 
-0.000000 0.000000 0.000000 
-0.000000 0.000000 0.000000 
-0.000000 -0.000000 0.000000 
-0.000000 0.000000 0.000000 
0.000000 -0.000000 0.000000 
0.000000 0.000000 0.000000 
0.000000 -0.000000 0.000000 
-0.000000 0.000000 0.000000 
-0.000000 0.000000 0.000000 
0.000000 -0.000000 0.000000 
-0.000000 -0.000000 0.000000 
-0.000000 -0.000000 0.000000 
0.000000 0.000000 0.000000 
-0.000000 0.000000 0.000000 
0.000000 -0.000000 0.000000 
-0.000000 -0.000000 0.000000 
-0.000000 0.000000 0.000000 
0.000000 -0.000000 0.000000 
-0.000000 -0.000000 0.000000 
0.000000 -0.000000 0.000000 
-0.000000 0.000000 0.000000 
-0.000000 -0.000000 0.000000 
-0.000000 -0.000000 0.000000 
-0.000000 0.000000 0.000000 
0.000000 0.000000 0.000000 
0.000000 0.000000 0.000000 
-0.000000 -0.000000 0.000000 
0.000000 -0.000000 0.000000 
-0.000000 -0.000000 0.000000 
-0.000000 -0.000000 0.000000 
0.000000 -0.000000 0.000000 
-0.000000 -0.000000 0.000000 
0.000000 0.000000 0.000000 
-0.000000 0.000000 0.000000 
0.000000 0.000000 0.000000 
0.000000 0.000000 0.000000 
-0.000000 -0.000000 0.000000 
-0.000000 -0.000000 0.000000 
0.000000 0.000000 0.000000 
-0.000000 -0.000000 0.000000 
0.000000 0.000000 0.000000 
-0.000000 0.000000 0.000000 
0.000000 0.000000 0.000000 
-0.000000 0.000000 0.000000 
-0.000000 0.000000 0.000000 
0.000000 -0.000000 0.000000 
-0.000000 -0.000000 0.000000 
-0.000000 0.000000 0.000000 
0.000000 -0.000000 0.000000 
0.000000 -0.000000 0.000000 
-0.000000 -0.000000 0.000000 
-0.000000 -0.000000 0.000000 
-0.000000 -0.000000 0.000000 
-0.000000 -0.000000 0.000000 
-0.000000 -0.000000 0.000000 
0.000000 -0.000000 0.000000 
-0.000000 0.000000 0.000000 
-0.000000 -0.000000 0.000000 
0.000000 -0.000000 0.000000 
0.000000 -0.000000 0.000000 
-0.000000 -0.000000 0.000000 
0.000000 -0.000000 0.000000 
0.000000 -0.000000 0.000000 
0.000000 0.000000 0.000000 
-0.000000 0.000000 0.000000 
0.000000 0.000000 0.000000 
0.000000 -0.000000 0.000000 
0.000000 -0.000000 0.000000 
-0.000000 -0.000000 0.000000 
0.000000 0.000000 0.000000 
0.000000 0.000000 0.000000 
-0.000000 0.000000 0.000000 
-0.000000 0.000000 0.000000 
0.000000 0.000000 0.000000 
0.000000 0.000000 0.000000 
-0.000000 -0.000000 0.000000 
-0.000000 0.000000 0.000000 
-0.000000 -0.000000 0.000000 
0.000000 -0.000000 0.000000 
-0.000000 0.000000 0.000000 
-0.000000 -0.000000 0.000000 
0.000000 0.000000 0.000000 
-0.000000 -0.000000 0.000000 
0.000000 -0.000000 0.000000 
-0.000000 -0.000000 0.000000 
-0.000000 -0.000000 0.000000 
-0.000000 -0.000000 0.000000 
-0.000000 0.000000 0.000000 
0.000000 -0.000000 0.000000 
-0.000000 0.000000 0.000000 
-0.000000 -0.000000 0.000000 
-0.000000 0.000000 0.000000 
0.000000 0.000000 0.000000 
0.000000 0.000000 0.000000 
-0.000000 0.000000 0.000000 
-0.000000 -0.000000 0.000000 
-0.000000 -0.000000 0.000000 
0.000000 -0.000000 0.000000 
-0.000000 -0.000000 0.000000 
-0.000000 -0.000000 0.000000 
0.000000 -0.000000 0.000000 
-0.000000 0.000000 0.000000 
0.000000 -0.000000 0.000000 
0.000000 0.000000 0.000000 
0.000000 0.000000 0.000000 
-0.000000 0.000000 0.000000 
-0.000000 0.000000 0.000000 
0.000000 -0.000000 0.000000 
0.000000 0.000000 0.000000 
-0.000000 0.000000 0.000000 
0.000000 -0.000000 0.000000 
0.000000 0.000000 0.000000 
-0.000000 -0.000000 0.000000 
0.000000 0.000000 0.000000 
-0.000000 -0.000000 0.000000 
-0.000000 0.000000 0.000000 
0.000000 -0.000000 0.000000 
0.000000 -0.000000 0.000000 
0.000000 -0.000000 0.000000 
0.000000 0.000000 0.000000 
-0.000000 -0.000000 0.000000 
0.000000 0.000000 0.000000 
0.000000 0.000000 0.000000 
0.000000 -0.000000 0.000000 
0.000000 0.000000 0.000000 
-0.000000 0.000000 0.000000 
0.000000 -0.000000 0.000000 
-0.000000 -0.000000 0.000000 
0.000000 -0.000000 0.000000 
-0.000000 -0.000000 0.000000 
0.000000 -0.000000 0.000000 
-0.000000 -0.000000 0.000000 
-0.000000 0.000000 0.000000 
-0.000000 -0.000000 0.000000 
0.000000 0.000000 0.000000 
0.000000 0.000000 0.000000 
-0.000000 -0.000000 0.000000 
-0.000000 0.000000 0.000000 
-0.000000 -0.000000 0.000000 
-0.000000 0.000000 0.000000 
-0.000000 0.000000 0.000000 
0.000000 0.000000 0.000000 
0.000000 0.000000 0.000000 
0.000000 0.000000 0.000000 
0.000000 -0.000000 0.000000 
-0.000000 -0.000000 0.000000 
-0.000000 0.000000 0.000000 
-0.000000 0.000000 0.000000 
-0.000000 -0.000000 0.000000 
0.000000 0.000000 0.000000 
0.000000 0.000000 0.000000 
0.000000 0.000000 0.000000 
-0.000000 -0.000000 0.000000 
-0.000000 -0.000000 0.000000 
0.000000 0.000000 0.000000 
-0.000000 -0.000000 0.000000 
0.000000 0.000000 0.000000 
-0.000000 -0.000000 0.000000 
-0.000000 -0.000000 0.000000 
0.000000 0.000000 0.000000 
-0.000000 0.000000 0.000000 
-0.000000 0.000000 0.000000 
0.000000 -0.000000 0.000000 
-0.000000 -0.000000 0.000000 
-0.000000 0.000000 0.000000 
0.000000 0.000000 0.000000 
-0.000000 0.000000 0.000000 
-0.000000 0.000000 0.000000 
-0.000000 0.000000 0.000000 
0.000000 0.000000 0.000000 
-0.000000 -0.000000 0.000000 
0.000000 0.000000 0.000000 
-0.000000 -0.000000 0.000000 
-0.000000 -0.000000 0.000000 
-0.000000 -0.000000 0.000000 
-0.000000 0.000000 0.000000 
-0.000000 -0.000000 0.000000 
-0.000000 0.000000 0.000000 
-0.000000 0.000000 0.000000 
-0.000000 0.000000 0.000000 
0.000000 -0.000000 0.000000 
-0.000000 0.000000 0.000000 
-0.000000 0.000000 0.000000 
0.000000 -0.000000 0.000000 
0.000000 -0.000000 0.000000 
0.000000 0.000000 0.000000 
0.000000 -0.000000 0.000000 
0.000000 0.000000 0.000000 
-0.000000 -0.000000 0.000000 
-0.000000 0.000000 0.000000 
-0.000000 -0.000000 0.000000 
-0.000000 -0.000000 0.000000 
0.000000 0.000000 0.000000 
-0.000000 -0.000000 0.000000 
0.000000 0.000000 0.000000 
0.000000 -0.000000 0.000000 
0.000000 -0.000000 0.000000 
-0.000000 0.000000 0.000000 
-0.000000 0.000000 0.000000 
-0.000000 0.000000 0.000000 
0.000000 0.000000 0.000000 
-0.000000 -0.000000 0.000000 
-0.000000 -0.000000 0.000000 
0.000000 -0.000000 0.000000 
-0.000000 -0.000000 0.000000 
0.000000 0.000000 0.000000 
-0.000000 0.000000 0.000000 
0.000000 -0.000000 0.000000 
-0.000000 0.000000 0.000000 
0.000000 -0.000000 0.000000 
0.000000 -0.000000 0.000000 
0.000000 -0.000000 0.000000 
0.000000 0.000000 0.000000 
-0.000000 -0.000000 0.000000 
-0.000000 -0.000000 0.000000 
0.000000 -0.000000 0.000000 
-0.000000 -0.000000 0.000000 
0.000000 0.000000 0.000000 
0.000000 -0.000000 0.000000 
-0.000000 0.000000 0.000000 
0.000000 -0.000000 0.000000 
-0.000000 0.000000 0.000000 
0.000000 -0.000000 0.000000 
0.000000 -0.000000 0.000000 
-0.000000 0.000000 0.000000 
-0.000000 -0.000000 0.000000 
-0.000000 -0.000000 0.000000 
0.000000 -0.000000 0.000000 
-0.000000 -0.000000 0.000000 
-0.000000 0.000000 0.000000 
0.000000 -0.000000 0.000000 
-0.000000 -0.000000 0.000000 
-0.000000 0.000000 0.000000 
-0.000000 0.000000 0.000000 
-0.000000 0.000000 0.000000 
0.000000 -0.000000 0.000000 
-0.000000 -0.000000 0.000000 
0.000000 -0.000000 0.000000 
0.000000 -0.000000 0.000000 
-0.000000 0.000000 0.000000 
-0.000000 -0.000000 0.000000 
0.000000 0.000000 0.000000 
-0.000000 0.000000 0.000000 
0.000000 -0.000000 0.000000 
-0.000000 0.000000 0.000000 
-0.000000 -0.000000 0.000000 
0.000000 0.000000 0.000000 
-0.000000 0.000000 0.000000 
-0.000000 0.000000 0.000000 
0.000000 -0.000000 0.000000 
0.000000 -0.000000 0.000000 
-0.000000 0.000000 0.000000 
0.000000 0.000000 0.000000 
-0.000000 0.000000 0.000000 
0.000000 0.000000 0.000000 
-0.000000 -0.000000 0.000000 
-0.000000 -0.000000 0.000000 
0.000000 0.000000 0.000000 
0.000000 -0.000000 0.000000 
-0.000000 0.000000 0.000000 
-0.000000 0.000000 0.000000 
-0.000000 -0.000000 0.000000 
0.000000 0.000000 0.000000 
0.000000 0.000000 0.000000 
-0.000000 -0.000000 0.000000 
0.000000 -0.000000 0.000000 
-0.000000 0.000000 0.000000 
0.000000 0.000000 0.000000 
-0.000000 -0.000000 0.000000 
0.000000 0.000000 0.000000 
0.000000 -0.000000 0.000000 
0.000000 -0.000000 0.000000 
0.000000 0.000000 0.000000 
0.000000 -0.000000 0.000000 
0.000000 0.000000 0.000000 
-0.000000 0.000000 0.000000 
0.000000 0.000000 0.000000 
0.000000 0.000000 0.000000 
-0.000000 0.000000 0.000000 
-0.000000 0.000000 0.000000 
0.000000 -0.000000 0.000000 
0.000000 -0.000000 0.000000 
0.000000 -0.000000 0.000000 
-0.000000 -0.000000 0.000000 
0.000000 -0.000000 0.000000 
0.000000 -0.000000 0.000000 
0.000000 -0.000000 0.000000 
0.000000 -0.000000 0.000000 
-0.000000 -0.000000 0.000000 
-0.000000 0.000000 0.000000 
-0.000000 0.000000 0.000000 
0.000000 -0.000000 0.000000 
0.000000 0.000000 0.000000 
-0.000000 -0.000000 0.000000 
0.000000 -0.000000 0.000000 
-0.000000 0.000000 0.000000 
-0.000000 -0.000000 0.000000 
-0.000000 0.000000 0.000000 
-0.000000 0.000000 0.000000 
-0.000000 -0.000000 0.000000 
0.000000 -0.000000 0.000000 
-0.000000 -0.000000 0.000000 
0.000000 0.000000 0.000000 
0.000000 -0.000000 0.000000 
0.000000 0.000000 0.000000 
0.000000 -0.000000 0.000000 
-0.000000 -0.000000 0.000000 
0.000000 0.000000 0.000000 
0.000000 -0.000000 0.000000 
0.000000 0.000000 0.000000 
-0.000000 0.000000 0.000000 
-0.000000 0.000000 0.000000 
-0.000000 -0.000000 0.000000 
-0.000000 -0.000000 0.000000 
0.000000 -0.000000 0.000000 
0.000000 0.000000 0.000000 
0.000000 -0.000000 0.000000 
-0.000000 -0.000000 0.000000 
0.000000 -0.000000 0.000000 
0.000000 0.000000 0.000000 
0.000000 0.000000 0.000000 
-0.000000 0.000000 0.000000 
-0.000000 -0.000000 0.000000 
0.000000 0.000000 0.000000 
-0.000000 0.000000 0.000000 
0.000000 -0.000000 0.000000 
-0.000000 0.000000 0.000000 
-0.000000 0.000000 0.000000 
-0.000000 0.000000 0.000000 
0.000000 -0.000000 0.000000 
-0.000000 0.000000 0.000000 
0.000000 0.000000 0.000000 
-0.000000 -0.000000 0.000000 
0.000000 0.000000 0.000000 
-0.000000 -0.000000 0.000000 
0.000000 -0.000000 0.000000 
-0.000000 -0.000000 0.000000 
0.000000 0.000000 0.000000 
0.000000 0.000000 0.000000 
-0.000000 0.000000 0.000000 
-0.000000 0.000000 0.000000 
0.000000 -0.000000 0.000000 
0.000000 -0.000000 0.000000 
0.000000 -0.000000 0.000000 
-0.000000 -0.000000 0.000000 
-0.000000 0.000000 0.000000 
-0.000000 -0.000000 0.000000 
0.000000 -0.000000 0.000000 
-0.000000 -0.000000 0.000000 
-0.000000 0.000000 0.000000 
-0.000000 -0.000000 0.000000 
0.000000 -0.000000 0.000000 
0.000000 0.000000 0.000000 
0.000000 0.000000 0.000000 
0.000000 0.000000 0.000000 
0.000000 0.000000 0.000000 
-0.000000 0.000000 0.000000 
-0.000000 -0.000000 0.000000 
-0.000000 0.000000 0.000000 
0.000000 0.000000 0.000000 
-0.000000 -0.000000 0.000000 
0.000000 -0.000000 0.000000 
-0.000000 0.000000 0.000000 
-0.000000 -0.000000 0.000000 
0.000000 0.000000 0.000000 
-0.000000 -0.000000 0.000000 
0.000000 0.000000 0.000000 
0.000000 0.000000 0.000000 
0.000000 -0.000000 0.000000 
-0.000000 0.000000 0.000000 
0.000000 0.000000 0.000000 
0.000000 0.000000 0.000000 
-0.000000 -0.000000 0.000000 
-0.000000 -0.000000 0.000000 
0.000000 0.000000 0.000000 
0.000000 0.000000 0.000000 
-0.000000 0.000000 0.000000 
0.000000 -0.000000 0.000000 
0.000000 0.000000 0.000000 
0.000000 0.000000 0.000000 
0.000000 -0.000000 0.000000 
-0.000000 0.000000 0.000000 
0.000000 -0.000000 0.000000 
0.000000 0.000000 0.000000 
0.000000 0.000000 0.000000 
-0.000000 -0.000000 0.000000 
0.000000 0.000000 0.000000 
-0.000000 -0.000000 0.000000 
0.000000 -0.000000 0.000000 
0.000000 -0.000000 0.000000 
0.000000 -0.000000 0.000000 
-0.000000 0.000000 0.000000 
-0.000000 0.000000 0.000000 
0.000000 -0.000000 0.000000 
0.000000 -0.000000 0.000000 
0.000000 0.000000 0.000000 
-0.000000 -0.000000 0.000000 
0.000000 0.000000 0.000000 
-0.000000 -0.000000 0.000000 
0.000000 0.000000 0.000000 
-0.000000 0.000000 0.000000 
0.000000 0.000000 0.000000 
0.000000 0.000000 0.000000 
-0.000000 0.000000 0.000000 
0.000000 -0.000000 0.000000 
0.000000 0.000000 0.000000 
-0.000000 0.000000 0.000000 
-0.000000 0.000000 0.000000 
0.000000 -0.000000 0.000000 
-0.000000 0.000000 0.000000 
0.000000 0.000000 0.000000 
0.000000 -0.000000 0.000000 
-0.000000 -0.000000 0.000000 
0.000000 -0.000000 0.000000 
0.000000 0.000000 0.000000 
0.000000 0.000000 0.000000 
-0.000000 0.000000 0.000000 
-0.000000 -0.000000 0.000000 
0.000000 0.000000 0.000000 
0.000000 0.000000 0.000000 
0.000000 0.000000 0.000000 
-0.000000 0.000000 0.000000 
0.000000 0.000000 0.000000 
-0.000000 0.000000 0.000000 
-0.000000 -0.000000 0.000000 
0.000000 -0.000000 0.000000 
0.000000 0.000000 0.000000 
-0.000000 0.000000 0.000000 
0.000000 -0.000000 0.000000 
-0.000000 -0.000000 0.000000 
0.000000 -0.000000 0.000000 
0.000000 0.000000 0.000000 
0.000000 -0.000000 0.000000 
-0.000000 0.000000 0.000000 
0.000000 -0.000000 0.000000 
0.000000 0.000000 0.000000 
-0.000000 -0.000000 0.000000 
0.000000 0.000000 0.000000 
-0.000000 0.000000 0.000000 
0.000000 -0.000000 0.000000 
-0.000000 0.000000 0.000000 
-0.000000 -0.000000 0.000000 
0.000000 0.000000 0.000000 
0.000000 0.000000 0.000000 
-0.000000 -0.000000 0.000000 
-0.000000 -0.000000 0.000000 
0.000000 -0.000000 0.000000 
-0.000000 -0.000000 0.000000 
-0.000000 -0.000000 0.000000 
0.000000 0.000000 0.000000 
-0.000000 -0.000000 0.000000 
0.000000 -0.000000 0.000000 
-0.000000 -0.000000 0.000000 
-0.000000 -0.000000 0.000000 
-0.000000 0.000000 0.000000 
-0.000000 0.000000 0.000000 
-0.000000 0.000000 0.000000 
-0.000000 0.000000 0.000000 
-0.000000 0.000000 0.000000 
-0.000000 -0.000000 0.000000 
-0.000000 -0.000000 0.000000 
0.000000 0.000000 0.000000 
0.000000 -0.000000 0.000000 
-0.000000 0.000000 0.000000 
-0.000000 0.000000 0.000000 
0.000000 0.000000 0.000000 
0.000000 -0.000000 0.000000 
-0.000000 0.000000 0.000000 
0.000000 0.000000 0.000000 
0.000000 0.000000 0.000000 
-0.000000 0.000000 0.000000 
0.000000 -0.000000 0.000000 
-0.000000 0.000000 0.000000 
-0.000000 0.000000 0.000000 
0.000000 -0.000000 0.000000 
-0.000000 0.000000 0.000000 
0.000000 0.000000 0.000000 
0.000000 -0.000000 0.000000 
0.000000 0.000000 0.000000 
0.000000 -0.000000 0.000000 
0.000000 -0.000000 0.000000 
-0.000000 -0.000000 0.000000 
0.000000 0.000000 0.000000 
0.000000 -0.000000 0.000000 
0.000000 0.000000 0.000000 
-0.000000 -0.000000 0.000000 
0.000000 -0.000000 0.000000 
0.000000 -0.000000 0.000000 
0.000000 -0.000000 0.000000 
-0.000000 0.000000 0.000000 
0.000000 0.000000 0.000000 
-0.000000 -0.000000 0.000000 
-0.000000 -0.000000 0.000000 
-0.000000 -0.000000 0.000000 
-0.000000 -0.000000 0.000000 
0.000000 0.000000 0.000000 
-0.000000 0.000000 0.000000 
0.000000 -0.000000 0.000000 
0.000000 -0.000000 0.000000 
0.000000 0.000000 0.000000 
-0.000000 -0.000000 0.000000 
-0.000000 -0.000000 0.000000 
-0.000000 -0.000000 0.000000 
0.000000 0.000000 0.000000 
-0.000000 0.000000 0.000000 
0.000000 0.000000 0.000000 
0.000000 0.000000 0.000000 
0.000000 0.000000 0.000000 
0.000000 -0.000000 0.000000 
-0.000000 -0.000000 0.000000 
-0.000000 -0.000000 0.000000 
-0.000000 -0.000000 0.000000 
0.000000 -0.000000 0.000000 
-0.000000 -0.000000 0.000000 
0.000000 -0.000000 0.000000 
-0.000000 -0.000000 0.000000 
-0.000000 0.000000 0.000000 
0.000000 -0.000000 0.000000 
-0.000000 -0.000000 0.000000 
-0.000000 -0.000000 0.000000 
0.000000 -0.000000 0.000000 
0.000000 0.000000 0.000000 
0.000000 0.000000 0.000000 
0.000000 0.000000 0.000000 
-0.000000 -0.000000 0.000000 
-0.000000 0.000000 0.000000 
0.000000 -0.000000 0.000000 
-0.000000 -0.000000 0.000000 
0.000000 0.000000 0.000000 
-0.000000 -0.000000 0.000000 
-0.000000 0.000000 0.000000 
-0.000000 -0.000000 0.000000 
0.000000 -0.000000 0.000000 
-0.000000 0.000000 0.000000 
-0.000000 0.000000 0.000000 
-0.000000 0.000000 0.000000 
0.000000 -0.000000 0.000000 
0.000000 0.000000 0.000000 
-0.000000 -0.000000 0.000000 
-0.000000 -0.000000 0.000000 
-0.000000 0.000000 0.000000 
0.000000 0.000000 0.000000 
0.000000 -0.000000 0.000000 
-0.000000 -0.000000 0.000000 
0.000000 -0.000000 0.000000 
-0.000000 0.000000 0.000000 
0.000000 -0.000000 0.000000 
-0.000000 -0.000000 0.000000 
-0.000000 -0.000000 0.000000 
-0.000000 -0.000000 0.000000 
0.000000 -0.000000 0.000000 
0.000000 0.000000 0.000000 
-0.000000 -0.000000 0.000000 
0.000000 -0.000000 0.000000 
-0.000000 0.000000 0.000000 
0.000000 0.000000 0.000000 
-0.000000 -0.000000 0.000000 
-0.000000 0.000000 0.000000 
-0.000000 0.000000 0.000000 
0.000000 0.000000 0.000000 
-0.000000 -0.000000 0.000000 
0.000000 0.000000 0.000000 
-0.000000 -0.000000 0.000000 
-0.000000 -0.000000 0.000000 
0.000000 -0.000000 0.000000 
0.000000 0.000000 0.000000 
0.000000 -0.000000 0.000000 
0.000000 -0.000000 0.000000 
-0.000000 0.000000 0.000000 
-0.000000 0.000000 0.000000 
0.000000 0.000000 0.000000 
0.000000 0.000000 0.000000 
0.000000 -0.000000 0.000000 
0.000000 -0.000000 0.000000 
-0.000000 -0.000000 0.000000 
0.000000 -0.000000 0.000000 
-0.000000 0.000000 0.000000 
-0.000000 0.000000 0.000000 
0.000000 -0.000000 0.000000 
-0.000000 0.000000 0.000000 
-0.000000 0.000000 0.000000 
0.000000 0.000000 0.000000 
0.000000 -0.000000 0.000000 
0.000000 0.000000 0.000000 
0.000000 -0.000000 0.000000 
-0.000000 0.000000 0.000000 
0.000000 0.000000 0.000000 
-0.000000 0.000000 0.000000 
0.000000 0.000000 0.000000 
0.000000 -0.000000 0.000000 
0.000000 0.000000 0.000000 
0.000000 0.000000 0.000000 
0.000000 0.000000 0.000000 
0.000000 -0.000000 0.000000 
0.000000 0.000000 0.000000 
0.000000 -0.000000 0.000000 
0.000000 -0.000000 0.000000 
0.000000 0.000000 0.000000 
0.000000 -0.000000 0.000000 
-0.000000 0.000000 0.000000 
-0.000000 0.000000 0.000000 
-0.000000 -0.000000 0.000000 
-0.000000 -0.000000 0.000000 
-0.000000 -0.000000 0.000000 
-0.000000 0.000000 0.000000 
-0.000000 -0.000000 0.000000 
-0.000000 -0.000000 0.000000 
-0.000000 -0.000000 0.000000 
-0.000000 0.000000 0.000000 
-0.000000 0.000000 0.000000 
0.000000 0.000000 0.000000 
0.000000 0.000000 0.000000 
0.000000 0.000000 0.000000 
-0.000000 0.000000 0.000000 
0.000000 -0.000000 0.000000 
-0.000000 0.000000 0.000000 
0.000000 0.000000 0.000000 
-0.000000 -0.000000 0.000000 
0.000000 0.000000 0.000000 
0.000000 0.000000 0.000000 
0.000000 -0.000000 0.000000 
0.000000 0.000000 0.000000 
0.000000 0.000000 0.000000 
0.000000 -0.000000 0.000000 
-0.000000 -0.000000 0.000000 
-0.000000 0.000000 0.000000 
-0.000000 -0.000000 0.000000 
0.000000 -0.000000 0.000000 
-0.000000 -0.000000 0.000000 
0.000000 0.000000 0.000000 
-0.000000 0.000000 0.000000 
-0.000000 0.000000 0.000000 
-0.000000 0.000000 0.000000 
0.000000 0.000000 0.000000 
-0.000000 -0.000000 0.000000 
0.000000 -0.000000 0.000000 
-0.000000 -0.000000 0.000000 
0.000000 -0.000000 0.000000 
-0.000000 -0.000000 0.000000 
-0.000000 0.000000 0.000000 
-0.000000 0.000000 0.000000 
0.000000 -0.000000 0.000000 
-0.000000 0.000000 0.000000 
0.000000 0.000000 0.000000 
-0.000000 0.000000 0.000000 
0.000000 0.000000 0.000000 
0.000000 -0.000000 0.000000 
0.000000 0.000000 0.000000 
-0.000000 0.000000 0.000000 
0.000000 0.000000 0.000000 
-0.000000 -0.000000 0.000000 
-0.000000 -0.000000 0.000000 
0.000000 0.000000 0.000000 
0.000000 0.000000 0.000000 
0.000000 0.000000 0.000000 
0.000000 0.000000 0.000000 
-0.000000 0.000000 0.000000 
0.000000 -0.000000 0.000000 
-0.000000 -0.000000 0.000000 
0.000000 0.000000 0.000000 
0.000000 -0.000000 0.000000 
-0.000000 -0.000000 0.000000 
-0.000000 -0.000000 0.000000 
0.000000 -0.000000 0.000000 
0.000000 0.000000 0.000000 
-0.000000 0.000000 0.000000 
-0.000000 -0.000000 0.000000 
-0.000000 0.000000 0.000000 
-0.000000 -0.000000 0.000000 
0.000000 0.000000 0.000000 
-0.000000 0.000000 0.000000 
-0.000000 0.000000 0.000000 
-0.000000 -0.000000 0.000000 
-0.000000 0.000000 0.000000 
0.000000 -0.000000 0.000000 
-0.000000 -0.000000 0.000000 
-0.000000 0.000000 0.000000 
0.000000 0.000000 0.000000 
-0.000000 0.000000 0.000000 
0.000000 0.000000 0.000000 
-0.000000 0.000000 0.000000 
0.000000 0.000000 0.000000 
0.000000 0.000000 0.000000 
0.000000 0.000000 0.000000 
-0.000000 0.000000 0.000000 
-0.000000 -0.000000 0.000000 
-0.000000 -0.000000 0.000000 
-0.000000 0.000000 0.000000 
0.000000 -0.000000 0.000000 
-0.000000 -0.000000 0.000000 
0.000000 -0.000000 0.000000 
-0.000000 -0.000000 0.000000 
-0.000000 0.000000 0.000000 
-0.000000 -0.000000 0.000000 
-0.000000 -0.000000 0.000000 
-0.000000 -0.000000 0.000000 
-0.000000 -0.000000 0.000000 
0.000000 0.000000 0.000000 
0.000000 -0.000000 0.000000 
0.000000 -0.000000 0.000000 
0.000000 0.000000 0.000000 
0.000000 -0.000000 0.000000 
0.000000 -0.000000 0.000000 
0.000000 -0.000000 0.000000 
0.000000 -0.000000 0.000000 
0.000000 0.000000 0.000000 
-0.000000 -0.000000 0.000000 
0.000000 0.000000 0.000000 
0.000000 0.000000 0.000000 
0.000000 -0.000000 0.000000 
-0.000000 0.000000 0.000000 
-0.000000 0.000000 0.000000 
-0.000000 -0.000000 0.000000 
0.000000 -0.000000 0.000000 
-0.000000 0.000000 0.000000 
-0.000000 -0.000000 0.000000 
-0.000000 -0.000000 0.000000 
0.000000 -0.000000 0.000000 
-0.000000 -0.000000 0.000000 
0.000000 -0.000000 0.000000 
-0.000000 -0.000000 0.000000 
0.000000 -0.000000 0.000000 
-0.000000 -0.000000 0.000000 
0.000000 -0.000000 0.000000 
0.000000 -0.000000 0.000000 
0.000000 0.000000 0.000000 
0.000000 0.000000 0.000000 
-0.000000 0.000000 0.000000 
0.000000 0.000000 0.000000 
-0.000000 -0.000000 0.000000 
-0.000000 -0.000000 0.000000 
0.000000 0.000000 0.000000 
-0.000000 0.000000 0.000000 
0.000000 -0.000000 0.000000 
0.000000 -0.000000 0.000000 
0.000000 -0.000000 0.000000 
0.000000 -0.000000 0.000000 
-0.000000 0.000000 0.000000 
0.000000 -0.000000 0.000000 
0.000000 -0.000000 0.000000 
0.000000 0.000000 0.000000 
0.000000 -0.000000 0.000000 
-0.000000 -0.000000 0.000000 
0.000000 0.000000 0.000000 
0.000000 0.000000 0.000000 
-0.000000 -0.000000 0.000000 
0.000000 0.000000 0.000000 
0.000000 -0.000000 0.000000 
-0.000000 -0.000000 0.000000 
0.000000 -0.000000 0.000000 
0.000000 -0.000000 0.000000 
-0.000000 0.000000 0.000000 
0.000000 -0.000000 0.000000 
-0.000000 0.000000 0.000000 
0.000000 -0.000000 0.000000 
0.000000 0.000000 0.000000 
0.000000 -0.000000 0.000000 
-0.000000 -0.000000 0.000000 
0.000000 0.000000 0.000000 
0.000000 0.000000 0.000000 
0.000000 -0.000000 0.000000 
-0.000000 0.000000 0.000000 
-0.000000 -0.000000 0.000000 
-0.000000 -0.000000 0.000000 
-0.000000 -0.000000 0.000000 
-0.000000 0.000000 0.000000 
0.000000 -0.000000 0.000000 
-0.000000 0.000000 0.000000 
-0.000000 -0.000000 0.000000 
0.000000 -0.000000 0.000000 
-0.000000 -0.000000 0.000000 
0.000000 0.000000 0.000000 
0.000000 0.000000 0.000000 
0.000000 0.000000 0.000000 
-0.000000 0.000000 0.000000 
0.000000 -0.000000 0.000000 
-0.000000 -0.000000 0.000000 
0.000000 0.000000 0.000000 
-0.000000 -0.000000 0.000000 
0.000000 -0.000000 0.000000 
-0.000000 -0.000000 0.000000 
0.000000 -0.000000 0.000000 
0.000000 0.000000 0.000000 
-0.000000 0.000000 0.000000 
0.000000 0.000000 0.000000 
0.000000 -0.000000 0.000000 
-0.000000 -0.000000 0.000000 
-0.000000 0.000000 0.000000 
0.000000 -0.000000 0.000000 
0.000000 -0.000000 0.000000 
0.000000 -0.000000 0.000000 
0.000000 -0.000000 0.000000 
0.000000 0.000000 0.000000 
-0.000000 0.000000 0.000000 
-0.000000 -0.000000 0.000000 
0.000000 0.000000 0.000000 
0.000000 -0.000000 0.000000 
0.000000 -0.000000 0.000000 
0.000000 -0.000000 0.000000 
0.000000 -0.000000 0.000000 
0.000000 -0.000000 0.000000 
0.000000 0.000000 0.000000 
0.000000 0.000000 0.000000 
-0.000000 0.000000 0.000000 
0.000000 0.000000 0.000000 
0.000000 0.000000 0.000000 
-0.000000 -0.000000 0.000000 
-0.000000 0.000000 0.000000 
0.000000 0.000000 0.000000 
0.000000 0.000000 0.000000 
0.000000 -0.000000 0.000000 
-0.000000 0.000000 0.000000 
0.000000 -0.000000 0.000000 
0.000000 -0.000000 0.000000 
0.000000 -0.000000 0.000000 
0.000000 -0.000000 0.000000 
-0.000000 0.000000 0.000000 
0.000000 0.000000 0.000000 
0.000000 -0.000000 0.000000 
0.000000 -0.000000 0.000000 
0.000000 0.000000 0.000000 
0.000000 0.000000 0.000000 
0.000000 0.000000 0.000000 
0.000000 -0.000000 0.000000 
-0.000000 -0.000000 0.000000 
-0.000000 0.000000 0.000000 
0.000000 -0.000000 0.000000 
-0.000000 0.000000 0.000000 
0.000000 0.000000 0.000000 
-0.000000 0.000000 0.000000 
-0.000000 0.000000 0.000000 
0.000000 -0.000000 0.000000 
-0.000000 -0.000000 0.000000 
-0.000000 0.000000 0.000000 
0.000000 -0.000000 0.000000 
-0.000000 0.000000 0.000000 
-0.000000 0.000000 0.000000 
-0.000000 -0.000000 0.000000 
0.000000 0.000000 0.000000 
-0.000000 0.000000 0.000000 
-0.000000 0.000000 0.000000 
-0.000000 0.000000 0.000000 
-0.000000 0.000000 0.000000 
</DataArray>
<DataArray type="Int32" Name="bc_kinds" NumberOfComponents="1" format="ascii" >
-1 -1 -1 -1 -1 -1 -1 -1 -1 -1 -1 -1 -1 -1 -1 -1 -1 -1 -1 -1 -1 -1 -1 -1 -1 -1 -1 -1 -1 -1 -1 -1 -1 -1 -1 -1 -1 -1 -1 -1 -1 -1 -1 -1 -1 -1 -1 -1 -1 -1 -1 -1 -1 -1 -1 -1 -1 -1 -1 -1 -1 -1 -1 -1 -1 -1 -1 -1 -1 -1 -1 -1 -1 -1 -1 -1 -1 -1 -1 -1 -1 -1 -1 -1 -1 -1 -1 -1 -1 -1 -1 -1 -1 -1 -1 -1 -1 -1 -1 -1 -1 -1 -1 -1 -1 -1 -1 -1 -1 -1 -1 -1 -1 -1 -1 -1 -1 -1 -1 -1 -1 -1 -1 -1 -1 -1 -1 -1 -1 -1 -1 -1 -1 -1 -1 -1 -1 -1 -1 -1 -1 -1 -1 -1 -1 -1 -1 -1 -1 -1 -1 -1 -1 -1 -1 -1 -1 -1 -1 -1 -1 -1 -1 -1 -1 -1 -1 -1 -1 -1 -1 -1 -1 -1 -1 -1 -1 -1 -1 -1 -1 -1 -1 -1 -1 -1 -1 -1 -1 -1 -1 -1 -1 -1 -1 -1 -1 -1 -1 -1 -1 -1 -1 -1 -1 -1 -1 -1 -1 -1 -1 -1 -1 -1 -1 -1 -1 -1 -1 -1 -1 -1 -1 -1 -1 -1 -1 -1 -1 -1 -1 -1 -1 -1 -1 -1 -1 -1 -1 -1 -1 -1 -1 -1 -1 -1 -1 -1 -1 -1 -1 -1 -1 -1 -1 -1 -1 -1 -1 -1 -1 -1 -1 -1 -1 -1 -1 -1 -1 -1 -1 -1 -1 -1 -1 -1 -1 -1 -1 -1 -1 -1 -1 -1 -1 -1 -1 -1 -1 -1 -1 -1 -1 -1 -1 -1 -1 -1 -1 -1 -1 -1 -1 -1 -1 -1 -1 -1 -1 -1 -1 -1 -1 -1 -1 -1 -1 -1 -1 -1 -1 -1 -1 -1 -1 -1 -1 -1 -1 -1 -1 -1 -1 -1 -1 -1 -1 -1 -1 -1 -1 -1 -1 -1 -1 -1 -1 -1 -1 -1 -1 -1 -1 -1 -1 -1 -1 -1 -1 -1 -1 -1 -1 -1 -1 -1 -1 -1 -1 -1 -1 -1 -1 -1 -1 -1 -1 -1 -1 -1 -1 -1 -1 -1 -1 -1 -1 -1 -1 -1 -1 -1 -1 -1 -1 -1 -1 -1 -1 -1 -1 -1 -1 -1 -1 -1 -1 -1 -1 -1 -1 -1 -1 -1 -1 -1 -1 -1 -1 -1 -1 -1 -1 -1 -1 -1 -1 -1 -1 -1 -1 -1 -1 -1 -1 -1 -1 -1 -1 -1 -1 -1 -1 -1 -1 -1 -1 -1 -1 -1 -1 -1 -1 -1 -1 -1 -1 -1 -1 -1 -1 -1 -1 -1 -1 -1 -1 -1 -1 -1 -1 -1 -1 -1 -1 -1 -1 -1 -1 -1 -1 -1 -1 -1 -1 -1 -1 -1 -1 -1 -1 -1 -1 -1 -1 -1 -1 -1 -1 -1 -1 -1 -1 -1 -1 -1 -1 -1 -1 -1 -1 -1 -1 -1 -1 -1 -1 -1 -1 -1 -1 -1 -1 -1 -1 -1 -1 -1 -1 -1 -1 -1 -1 -1 -1 -1 -1 -1 -1 -1 -1 -1 -1 -1 -1 -1 -1 -1 -1 -1 -1 -1 -1 -1 -1 -1 -1 -1 -1 -1 -1 -1 -1 -1 -1 -1 -1 -1 -1 -1 -1 -1 -1 -1 -1 -1 -1 -1 -1 -1 -1 -1 -1 -1 -1 -1 -1 -1 -1 -1 -1 -1 -1 -1 -1 -1 -1 -1 -1 -1 -1 -1 -1 -1 -1 -1 -1 -1 -1 -1 -1 -1 -1 -1 -1 -1 -1 -1 -1 -1 -1 -1 -1 -1 -1 -1 -1 -1 -1 -1 -1 -1 -1 -1 -1 -1 -1 -1 -1 -1 -1 -1 -1 -1 -1 -1 -1 -1 -1 -1 -1 -1 -1 -1 -1 -1 -1 -1 -1 -1 -1 -1 -1 -1 -1 -1 -1 -1 -1 -1 -1 -1 -1 -1 -1 -1 -1 -1 -1 -1 -1 -1 -1 -1 -1 -1 -1 -1 -1 -1 -1 -1 -1 -1 -1 -1 -1 -1 -1 -1 -1 -1 -1 -1 -1 -1 -1 -1 -1 -1 -1 -1 -1 -1 -1 -1 -1 -1 -1 -1 -1 -1 -1 -1 -1 -1 -1 -1 -1 -1 -1 -1 -1 -1 -1 -1 -1 -1 -1 -1 -1 -1 -1 -1 -1 -1 -1 -1 -1 -1 -1 -1 -1 -1 -1 -1 -1 -1 -1 -1 -1 -1 -1 -1 -1 -1 -1 -1 -1 -1 -1 -1 -1 -1 -1 -1 -1 -1 -1 -1 -1 -1 -1 -1 -1 -1 -1 -1 -1 -1 -1 -1 -1 -1 -1 -1 -1 -1 -1 -1 -1 -1 -1 -1 -1 -1 -1 -1 -1 -1 -1 -1 -1 -1 -1 -1 -1 -1 -1 -1 -1 -1 -1 -1 -1 -1 -1 -1 -1 -1 -1 -1 -1 -1 -1 -1 -1 -1 -1 -1 -1 -1 -1 -1 -1 -1 -1 -1 -1 -1 -1 -1 -1 -1 -1 -1 -1 -1 -1 -1 -1 -1 -1 -1 -1 -1 -1 -1 -1 -1 -1 -1 -1 -1 -1 -1 -1 -1 -1 -1 -1 -1 -1 -1 -1 -1 -1 -1 -1 -1 -1 -1 -1 -1 -1 -1 -1 -1 -1 -1 -1 -1 -1 -1 -1 -1 -1 -1 -1 -1 -1 -1 -1 -1 -1 -1 -1 -1 -1 -1 -1 -1 -1 -1 -1 -1 -1 -1 -1 -1 -1 -1 -1 -1 -1 -1 -1 -1 -1 -1 -1 -1 -1 -1 -1 -1 -1 -1 -1 -1 -1 -1 -1 -1 -1 -1 -1 -1 -1 -1 -1 -1 -1 -1 -1 -1 -1 -1 -1 -1 -1 -1 -1 -1 -1 -1 -1 -1 -1 -1 -1 -1 -1 -1 -1 -1 -1 -1 -1 -1 -1 -1 -1 -1 -1 -1 -1 -1 -1 -1 -1 -1 -1 -1 -1 -1 -1 -1 -1 -1 -1 -1 -1 -1 -1 -1 -1 -1 -1 -1 -1 -1 -1 -1 -1 -1 -1 -1 -1 -1 -1 -1 -1 -1 -1 -1 -1 -1 -1 -1 -1 -1 -1 -1 -1 -1 -1 -1 -1 -1 -1 -1 -1 -1 -1 -1 -1 -1 -1 -1 -1 -1 -1 -1 -1 -1 -1 -1 -1 -1 -1 -1 -1 -1 -1 -1 -1 -1 -1 -1 -1 -1 -1 -1 -1 -1 -1 -1 -1 -1 -1 -1 -1 -1 -1 -1 -1 -1 -1 -1 -1 -1 -1 -1 -1 -1 -1 -1 -1 -1 -1 -1 -1 -1 -1 -1 -1 -1 -1 -1 -1 -1 -1 -1 -1 -1 -1 -1 -1 -1 -1 -1 -1 -1 -1 -1 -1 -1 -1 -1 -1 -1 -1 -1 -1 -1 -1 -1 -1 -1 -1 -1 -1 -1 -1 -1 -1 -1 -1 -1 -1 -1 -1 -1 -1 -1 -1 -1 -1 -1 -1 -1 -1 -1 -1 -1 -1 -1 -1 -1 -1 -1 -1 -1 -1 -1 -1 -1 -1 -1 -1 -1 -1 -1 -1 -1 -1 -1 -1 -1 -1 -1 -1 -1 -1 -1 -1 -1 -1 -1 -1 -1 -1 -1 -1 -1 -1 -1 -1 -1 -1 -1 -1 -1 -1 -1 -1 -1 -1 -1 -1 -1 -1 -1 -1 -1 -1 -1 -1 -1 -1 -1 -1 -1 -1 -1 -1 -1 -1 -1 -1 -1 -1 -1 -1 -1 -1 -1 -1 -1 -1 -1 -1 -1 -1 -1 -1 -1 -1 -1 -1 -1 -1 -1 -1 -1 -1 -1 -1 -1 -1 -1 -1 -1 -1 -1 -1 -1 -1 -1 -1 -1 -1 -1 -1 -1 -1 -1 -1 -1 -1 -1 -1 -1 -1 -1 -1 -1 -1 -1 -1 -1 -1 -1 -1 -1 -1 -1 -1 -1 -1 -1 -1 -1 -1 -1 -1 -1 -1 -1 -1 -1 -1 -1 -1 -1 -1 -1 -1 -1 -1 -1 -1 -1 -1 -1 -1 -1 -1 -1 -1 -1 -1 -1 -1 -1 -1 -1 -1 -1 -1 -1 -1 -1 -1 -1 -1 -1 -1 -1 -1 -1 -1 -1 -1 -1 -1 -1 -1 -1 -1 -1 -1 -1 -1 -1 -1 -1 -1 -1 -1 -1 -1 -1 -1 -1 -1 -1 -1 -1 -1 -1 -1 -1 -1 -1 -1 -1 -1 -1 -1 -1 -1 -1 -1 -1 -1 -1 -1 -1 -1 -1 -1 -1 -1 -1 -1 -1 -1 -1 -1 -1 -1 -1 -1 -1 -1 -1 -1 -1 -1 -1 -1 -1 -1 -1 -1 -1 -1 -1 -1 -1 -1 -1 -1 -1 -1 -1 -1 -1 -1 -1 -1 -1 -1 -1 -1 -1 -1 -1 -1 -1 -1 -1 -1 -1 -1 -1 -1 -1 -1 -1 -1 -1 -1 -1 -1 -1 -1 -1 -1 -1 -1 -1 -1 -1 -1 -1 -1 -1 -1 -1 -1 -1 -1 -1 -1 -1 -1 -1 -1 -1 -1 -1 -1 -1 -1 -1 -1 -1 -1 -1 -1 -1 -1 -1 -1 -1 -1 -1 -1 -1 -1 -1 -1 -1 -1 -1 -1 -1 -1 -1 -1 -1 -1 -1 -1 -1 -1 -1 -1 -1 -1 -1 -1 -1 -1 -1 -1 -1 -1 -1 -1 -1 -1 -1 -1 -1 -1 -1 -1 -1 -1 -1 -1 -1 -1 -1 -1 -1 -1 -1 -1 -1 -1 -1 -1 -1 -1 -1 -1 -1 -1 -1 -1 -1 -1 -1 -1 -1 -1 -1 -1 -1 -1 -1 -1 -1 -1 -1 -1 -1 -1 -1 -1 -1 -1 -1 -1 -1 -1 -1 -1 -1 -1 -1 -1 -1 -1 -1 -1 -1 -1 -1 -1 -1 -1 -1 -1 -1 -1 -1 -1 -1 -1 -1 -1 -1 -1 -1 -1 -1 -1 -1 -1 -1 -1 -1 -1 -1 -1 -1 -1 -1 -1 -1 -1 -1 -1 -1 -1 -1 -1 -1 -1 -1 -1 -1 -1 -1 -1 
</DataArray>
</PointData>
<CellData>
<DataArray type="Int32" Name="part" NumberOfComponents="1" format="ascii">
0 0 0 0 0 0 0 0 0 0 0 0 0 0 0 0 0 0 0 0 0 0 0 0 0 0 0 0 0 0 0 0 0 0 0 0 0 0 0 0 0 0 0 0 0 0 0 0 0 0 0 0 0 0 0 0 0 0 0 0 0 0 0 0 0 0 0 0 0 0 0 0 0 0 0 0 0 0 0 0 0 0 0 0 0 0 0 0 0 0 0 0 0 0 0 0 0 0 0 0 0 0 0 0 0 0 0 0 0 0 0 0 0 0 0 0 0 0 0 0 0 0 0 0 0 0 0 0 0 0 0 0 0 0 0 0 0 0 0 0 0 0 0 0 0 0 0 0 0 0 0 0 0 0 0 0 0 0 0 0 0 0 0 0 0 0 0 0 0 0 0 0 0 0 0 0 0 0 0 0 0 0 0 0 0 0 0 0 0 0 0 0 0 0 0 0 0 0 0 0 0 0 0 0 0 0 0 0 0 0 0 0 0 0 0 0 0 0 0 0 0 0 0 0 0 0 0 0 0 0 0 0 0 0 0 0 0 0 0 0 0 0 0 0 0 0 0 0 0 0 0 0 0 0 0 0 0 0 0 0 0 0 0 0 0 0 0 0 0 0 0 0 0 0 0 0 0 0 0 0 0 0 0 0 0 0 0 0 0 0 0 0 0 0 0 0 0 0 0 0 0 0 0 0 0 0 0 0 0 0 0 0 0 0 0 0 0 0 0 0 0 0 0 0 0 0 0 0 0 0 0 0 0 0 0 0 0 0 0 0 0 0 0 0 0 0 0 0 0 0 0 0 0 0 0 0 0 0 0 0 0 0 0 0 0 0 0 0 0 0 0 0 0 0 0 0 0 0 0 0 0 0 0 0 0 0 0 0 0 0 0 0 0 0 0 0 0 0 0 0 0 0 0 0 0 0 0 0 0 0 0 0 0 0 0 0 0 0 0 0 0 0 0 0 0 0 0 0 0 0 0 0 0 0 0 0 0 0 0 0 0 0 0 0 0 0 0 0 0 0 0 0 0 0 0 0 0 0 0 0 0 0 0 0 0 0 0 0 0 0 0 0 0 0 0 0 0 0 0 0 0 0 0 0 0 0 0 0 0 0 0 0 0 0 0 0 0 0 0 0 0 0 0 0 0 0 0 0 0 0 0 0 0 0 0 0 0 0 0 0 0 0 0 0 0 0 0 0 0 0 0 0 0 0 0 0 0 0 0 0 0 0 0 0 0 0 0 0 0 0 0 0 0 0 0 0 0 0 0 0 0 0 0 0 0 0 0 0 0 0 0 0 0 0 0 0 0 0 0 0 0 0 0 0 0 0 0 0 0 0 0 0 0 0 0 0 0 0 0 0 0 0 0 0 0 0 0 0 0 0 0 0 0 0 0 0 0 0 0 0 0 0 0 0 0 0 0 0 0 0 0 0 0 0 0 0 0 0 0 0 0 0 0 0 0 0 0 0 0 0 0 0 0 0 0 0 0 0 0 0 0 0 0 0 0 0 0 0 0 0 0 0 0 0 0 0 0 0 0 0 0 0 0 0 0 0 0 0 0 0 0 0 0 0 0 0 0 0 0 0 0 0 0 0 0 0 0 0 0 0 0 0 0 0 0 0 0 0 0 0 0 0 0 0 0 0 0 0 0 0 0 0 0 0 0 0 0 0 0 0 0 0 0 0 0 0 0 0 0 0 0 0 0 0 0 0 0 0 0 0 0 0 0 0 0 0 0 0 0 0 0 0 0 0 0 0 0 0 0 0 0 0 0 0 0 0 0 0 0 0 0 0 0 0 0 0 0 0 0 0 0 0 0 0 0 0 0 0 0 0 0 0 0 0 0 0 0 0 0 0 0 0 0 0 0 0 0 0 0 0 0 0 0 0 0 0 0 0 0 0 0 0 0 0 0 0 0 0 0 0 0 0 0 0 0 0 0 0 0 0 0 0 0 0 0 0 0 0 0 0 0 0 0 0 0 0 0 0 0 0 0 0 0 0 0 0 0 0 0 0 0 0 0 0 0 0 0 0 0 0 0 0 0 0 0 0 0 0 0 0 0 0 0 0 0 0 0 0 0 0 0 0 0 0 0 0 0 0 0 0 0 0 0 0 0 0 0 0 0 0 0 0 0 0 0 0 0 0 0 0 0 0 0 0 0 0 0 0 0 0 0 0 0 0 0 0 0 0 0 0 0 0 0 0 0 0 0 0 0 0 0 0 0 0 0 0 0 0 0 0 0 0 0 0 0 0 0 0 0 0 0 0 0 0 0 0 0 0 0 0 0 0 0 0 0 0 0 0 0 0 0 0 0 0 0 0 0 0 0 0 0 0 0 0 0 0 0 0 0 0 0 0 0 0 0 0 0 0 0 0 0 0 0 0 0 0 0 0 0 0 0 0 0 0 0 0 0 0 0 0 0 0 0 0 0 0 0 0 0 0 0 0 0 0 0 0 0 0 0 0 0 0 0 0 0 0 0 0 0 0 0 0 0 0 0 0 0 0 0 0 0 0 0 0 0 0 0 0 0 0 0 0 0 0 0 0 0 0 0 0 0 0 0 0 0 0 0 0 0 0 0 0 0 0 0 0 0 0 0 0 0 0 0 0 0 0 0 0 0 0 0 0 0 0 0 0 0 0 0 0 0 0 0 0 0 0 0 0 0 0 0 0 0 0 0 0 0 0 0 0 0 0 0 0 0 0 0 0 0 0 0 0 0 0 0 0 0 0 0 0 0 0 0 0 0 0 0 0 0 0 0 0 0 0 0 0 0 0 0 0 0 0 0 0 0 0 0 0 0 0 0 0 0 0 0 0 0 0 0 0 0 0 0 0 0 0 0 0 0 0 0 0 0 0 0 0 0 0 0 0 0 0 0 0 0 0 0 0 0 0 0 0 0 0 0 0 0 0 0 0 0 0 0 0 0 0 0 0 0 0 0 0 0 0 0 0 0 0 0 0 0 0 0 0 0 0 0 0 0 0 0 0 0 0 0 0 0 0 0 0 0 0 0 0 0 0 0 0 0 0 0 0 0 0 0 0 0 0 0 0 0 0 0 0 0 0 0 0 0 0 0 0 0 0 0 0 0 0 0 0 0 0 0 0 0 0 0 0 0 0 0 0 0 0 0 0 0 0 0 0 0 0 0 0 0 0 0 0 0 0 0 0 0 0 0 0 0 0 0 0 0 0 0 0 0 0 0 0 0 0 0 0 0 0 0 0 0 0 0 0 0 0 0 0 0 0 0 0 0 0 0 0 0 0 0 0 0 0 0 0 0 0 0 0 0 0 0 0 0 0 0 0 0 0 0 0 0 0 0 0 0 0 0 0 0 0 0 0 0 0 0 0 0 0 0 0 0 0 0 0 0 0 0 0 0 0 0 0 0 0 0 0 0 0 0 0 0 0 0 0 0 0 0 0 0 0 0 0 0 0 0 0 0 0 0 0 0 0 0 0 0 0 0 0 0 0 0 0 0 0 0 0 0 0 0 0 0 0 0 0 0 0 0 0 0 0 0 0 0 0 0 0 0 0 0 0 0 0 0 0 0 0 0 0 0 0 0 0 0 0 0 0 0 0 0 0 0 0 0 0 0 0 0 0 0 0 0 0 0 0 
</DataArray>
<DataArray type="Float64" Name="strain" NumberOfComponents="4" format="ascii">
0.004823 0.002036 0.002036 -0.000519 0.004260 0.000701 0.000701 -0.000990 0.003898 0.000343 0.000343 -0.000933 0.003691 0.000198 0.000198 -0.000907 0.003559 0.000126 0.000126 -0.000881 0.003471 0.000085 0.000085 -0.000862 0.003411 0.000058 0.000058 -0.000849 0.003369 0.000040 0.000040 -0.000840 0.003339 0.000027 0.000027 -0.000833 0.003319 0.000019 0.000019 -0.000828 0.003305 0.000012 0.000012 -0.000825 0.003295 0.000008 0.000008 -0.000823 0.003289 0.000005 0.000005 -0.000822 0.003285 0.000002 0.000002 -0.000821 0.003283 0.000001 0.000001 -0.000820 0.003281 0.000000 0.000000 -0.000820 0.003281 -0.000000 -0.000000 -0.000820 0.003281 -0.000000 -0.000000 -0.000820 0.003281 -0.000000 -0.000000 -0.000820 0.003281 -0.000000 -0.000000 -0.000820 0.003281 0.000000 0.000000 -0.000820 0.003281 0.000000 0.000000 -0.000820 0.003281 0.000000 0.000000 -0.000820 0.003281 0.000000 0.000000 -0.000820 0.003281 -0.000000 -0.000000 -0.000820 0.003283 -0.000001 -0.000001 -0.000820 0.003285 -0.000002 -0.000002 -0.000821 0.003289 -0.000005 -0.000005 -0.000822 0.003295 -0.000008 -0.000008 -0.000823 0.003305 -0.000012 -0.000012 -0.000825 0.003319 -0.000019 -0.000019 -0.000828 0.003339 -0.000027 -0.000027 -0.000833 0.003369 -0.000040 -0.000040 -0.000840 0.003411 -0.000058 -0.000058 -0.000849 0.003471 -0.000085 -0.000085 -0.000862 0.003559 -0.000126 -0.000126 -0.000881 0.003691 -0.000198 -0.000198 -0.000907 0.003898 -0.000343 -0.000343 -0.000933 0.004260 -0.000701 -0.000701 -0.000990 0.004823 -0.002036 -0.002036 -0.000519 0.003866 0.001886 0.001886 -0.000215 0.004025 0.001539 0.001539 -0.000608 0.003914 0.000944 0.000944 -0.000818 0.003774 0.000605 0.000605 -0.000858 0.003659 0.000405 0.000405 -0.000866 0.003572 0.000279 0.000279 -0.000862 0.003507 0.000197 0.000197 -0.000856 0.003459 0.000140 0.000140 -0.000851 0.003422 0.000100 0.000100 -0.000846 0.003395 0.000071 0.000071 -0.000842 0.003375 0.000050 0.000050 -0.000839 0.003360 0.000034 0.000034 -0.000836 0.003350 0.000023 0.000023 -0.000835 0.003342 0.000015 0.000015 -0.000834 0.003336 0.000009 0.000009 -0.000833 0.003332 0.000005 0.000005 -0.000832 0.003330 0.000003 0.000003 -0.000832 0.003328 0.000001 0.000001 -0.000832 0.003327 0.000001 0.000001 -0.000832 0.003326 0.000000 0.000000 -0.000832 0.003326 -0.000000 -0.000000 -0.000832 0.003327 -0.000001 -0.000001 -0.000832 0.003328 -0.000001 -0.000001 -0.000832 0.003330 -0.000003 -0.000003 -0.000832 0.003332 -0.000005 -0.000005 -0.000832 0.003336 -0.000009 -0.000009 -0.000833 0.003342 -0.000015 -0.000015 -0.000834 0.003350 -0.000023 -0.000023 -0.000835 0.003360 -0.000034 -0.000034 -0.000836 0.003375 -0.000050 -0.000050 -0.000839 0.003395 -0.000071 -0.000071 -0.000842 0.003422 -0.000100 -0.000100 -0.000846 0.003459 -0.000140 -0.000140 -0.000851 0.003507 -0.000197 -0.000197 -0.000856 0.003572 -0.000279 -0.000279 -0.000862 0.003659 -0.000405 -0.000405 -0.000866 0.003774 -0.000605 -0.000605 -0.000858 0.003914 -0.000944 -0.000944 -0.000818 0.004025 -0.001539 -0.001539 -0.000608 0.003866 -0.001886 -0.001886 -0.000215 0.003585 0.001633 0.001633 -0.000128 0.003705 0.001521 0.001521 -0.000395 0.003765 0.001215 0.001215 -0.000620 0.003734 0.000884 0.000884 -0.000745 0.003675 0.000638 0.000638 -0.000801 0.003614 0.000463 0.000463 -0.000826 0.003562 0.000339 0.000339 -0.000837 0.003518 0.000249 0.000249 -0.000842 0.003483 0.000183 0.000183 -0.000844 0.003455 0.000135 0.000135 -0.000844 0.003434 0.000098 0.000098 -0.000844 0.003417 0.000071 0.000071 -0.000843 0.003403 0.000051 0.000051 -0.000843 0.003393 0.000035 0.000035 -0.000843 0.003386 0.000024 0.000024 -0.000843 0.003380 0.000016 0.000016 -0.000842 0.003376 0.000010 0.000010 -0.000842 0.003373 0.000006 0.000006 -0.000842 0.003372 0.000003 0.000003 -0.000842 0.003371 0.000001 0.000001 -0.000842 0.003371 -0.000001 -0.000001 -0.000842 0.003372 -0.000003 -0.000003 -0.000842 0.003373 -0.000006 -0.000006 -0.000842 0.003376 -0.000010 -0.000010 -0.000842 0.003380 -0.000016 -0.000016 -0.000842 0.003386 -0.000024 -0.000024 -0.000843 0.003393 -0.000035 -0.000035 -0.000843 0.003403 -0.000051 -0.000051 -0.000843 0.003417 -0.000071 -0.000071 -0.000843 0.003434 -0.000098 -0.000098 -0.000844 0.003455 -0.000135 -0.000135 -0.000844 0.003483 -0.000183 -0.000183 -0.000844 0.003518 -0.000249 -0.000249 -0.000842 0.003562 -0.000339 -0.000339 -0.000837 0.003614 -0.000463 -0.000463 -0.000826 0.003675 -0.000638 -0.000638 -0.000801 0.003734 -0.000884 -0.000884 -0.000745 0.003765 -0.001215 -0.001215 -0.000620 0.003705 -0.001521 -0.001521 -0.000395 0.003585 -0.001633 -0.001633 -0.000128 0.003437 0.001454 0.001454 -0.000093 0.003541 0.001403 0.001403 -0.000291 0.003618 0.001233 0.001233 -0.000482 0.003648 0.001004 0.001004 -0.000625 0.003640 0.000782 0.000782 -0.000715 0.003614 0.000600 0.000600 -0.000768 0.003582 0.000457 0.000457 -0.000799 0.003551 0.000348 0.000348 -0.000818 0.003523 0.000264 0.000264 -0.000829 0.003499 0.000199 0.000199 -0.000836 0.003479 0.000150 0.000150 -0.000841 0.003463 0.000112 0.000112 -0.000844 0.003449 0.000083 0.000083 -0.000846 0.003439 0.000060 0.000060 -0.000848 0.003431 0.000043 0.000043 -0.000849 0.003424 0.000030 0.000030 -0.000850 0.003419 0.000021 0.000021 -0.000851 0.003416 0.000013 0.000013 -0.000851 0.003414 0.000007 0.000007 -0.000851 0.003413 0.000002 0.000002 -0.000852 0.003413 -0.000002 -0.000002 -0.000852 0.003414 -0.000007 -0.000007 -0.000851 0.003416 -0.000013 -0.000013 -0.000851 0.003419 -0.000021 -0.000021 -0.000851 0.003424 -0.000030 -0.000030 -0.000850 0.003431 -0.000043 -0.000043 -0.000849 0.003439 -0.000060 -0.000060 -0.000848 0.003449 -0.000083 -0.000083 -0.000846 0.003463 -0.000112 -0.000112 -0.000844 0.003479 -0.000150 -0.000150 -0.000841 0.003499 -0.000199 -0.000199 -0.000836 0.003523 -0.000264 -0.000264 -0.000829 0.003551 -0.000348 -0.000348 -0.000818 0.003582 -0.000457 -0.000457 -0.000799 0.003614 -0.000600 -0.000600 -0.000768 0.003640 -0.000782 -0.000782 -0.000715 0.003648 -0.001004 -0.001004 -0.000625 0.003618 -0.001233 -0.001233 -0.000482 0.003541 -0.001403 -0.001403 -0.000291 0.003437 -0.001454 -0.001454 -0.000093 0.003352 0.001306 0.001306 -0.000075 0.003440 0.001279 0.001279 -0.000233 0.003517 0.001176 0.001176 -0.000393 0.003567 0.001019 0.001019 -0.000529 0.003589 0.000845 0.000845 -0.000631 0.003590 0.000681 0.000681 -0.000703 0.003580 0.000541 0.000541 -0.000751 0.003563 0.000425 0.000425 -0.000783 0.003545 0.000332 0.000332 -0.000805 0.003528 0.000258 0.000258 -0.000821 0.003513 0.000198 0.000198 -0.000832 0.003499 0.000152 0.000152 -0.000839 0.003487 0.000115 0.000115 -0.000845 0.003478 0.000086 0.000086 -0.000849 0.003470 0.000064 0.000064 -0.000852 0.003464 0.000046 0.000046 -0.000855 0.003459 0.000032 0.000032 -0.000857 0.003455 0.000021 0.000021 -0.000858 0.003453 0.000012 0.000012 -0.000859 0.003452 0.000004 0.000004 -0.000859 0.003452 -0.000004 -0.000004 -0.000859 0.003453 -0.000012 -0.000012 -0.000859 0.003455 -0.000021 -0.000021 -0.000858 0.003459 -0.000032 -0.000032 -0.000857 0.003464 -0.000046 -0.000046 -0.000855 0.003470 -0.000064 -0.000064 -0.000852 0.003478 -0.000086 -0.000086 -0.000849 0.003487 -0.000115 -0.000115 -0.000845 0.003499 -0.000152 -0.000152 -0.000839 0.003513 -0.000198 -0.000198 -0.000832 0.003528 -0.000258 -0.000258 -0.000821 0.003545 -0.000332 -0.000332 -0.000805 0.003563 -0.000425 -0.000425 -0.000783 0.003580 -0.000541 -0.000541 -0.000751 0.003590 -0.000681 -0.000681 -0.000703 0.003589 -0.000845 -0.000845 -0.000631 0.003567 -0.001019 -0.001019 -0.000529 0.003517 -0.001176 -0.001176 -0.000393 0.003440 -0.001279 -0.001279 -0.000233 0.003352 -0.001306 -0.001306 -0.000075 0.003298 0.001179 0.001179 -0.000064 0.003375 0.001162 0.001162 -0.000197 0.003446 0.001095 0.001095 -0.000333 0.003503 0.000985 0.000985 -0.000458 0.003540 0.000852 0.000852 -0.000561 0.003559 0.000715 0.000715 -0.000641 0.003565 0.000588 0.000588 -0.000701 0.003562 0.000477 0.000477 -0.000744 0.003555 0.000382 0.000382 -0.000776 0.003546 0.000304 0.000304 -0.000799 0.003536 0.000240 0.000240 -0.000817 0.003526 0.000187 0.000187 -0.000830 0.003517 0.000145 0.000145 -0.000839 0.003510 0.000111 0.000111 -0.000847 0.003503 0.000084 0.000084 -0.000853 0.003498 0.000062 0.000062 -0.000857 0.003494 0.000044 0.000044 -0.000860 0.003491 0.000029 0.000029 -0.000862 0.003489 0.000017 0.000017 -0.000864 0.003488 0.000005 0.000005 -0.000864 0.003488 -0.000005 -0.000005 -0.000864 0.003489 -0.000017 -0.000017 -0.000864 0.003491 -0.000029 -0.000029 -0.000862 0.003494 -0.000044 -0.000044 -0.000860 0.003498 -0.000062 -0.000062 -0.000857 0.003503 -0.000084 -0.000084 -0.000853 0.003510 -0.000111 -0.000111 -0.000847 0.003517 -0.000145 -0.000145 -0.000839 0.003526 -0.000187 -0.000187 -0.000830 0.003536 -0.000240 -0.000240 -0.000817 0.003546 -0.000304 -0.000304 -0.000799 0.003555 -0.000382 -0.000382 -0.000776 0.003562 -0.000477 -0.000477 -0.000744 0.003565 -0.000588 -0.000588 -0.000701 0.003559 -0.000715 -0.000715 -0.000641 0.003540 -0.000852 -0.000852 -0.000561 0.003503 -0.000985 -0.000985 -0.000458 0.003446 -0.001095 -0.001095 -0.000333 0.003375 -0.001162 -0.001162 -0.000197 0.003298 -0.001179 -0.001179 -0.000064 0.003263 0.001066 0.001066 -0.000056 0.003331 0.001054 0.001054 -0.000173 0.003397 0.001007 0.001007 -0.000292 0.003454 0.000928 0.000928 -0.000406 0.003498 0.000826 0.000826 -0.000505 0.003527 0.000715 0.000715 -0.000588 0.003545 0.000606 0.000606 -0.000653 0.003554 0.000505 0.000505 -0.000705 0.003556 0.000414 0.000414 -0.000744 0.003555 0.000337 0.000337 -0.000775 0.003551 0.000271 0.000271 -0.000798 0.003546 0.000216 0.000216 -0.000816 0.003541 0.000170 0.000170 -0.000830 0.003536 0.000132 0.000132 -0.000841 0.003531 0.000101 0.000101 -0.000850 0.003528 0.000076 0.000076 -0.000856 0.003524 0.000055 0.000055 -0.000861 0.003522 0.000037 0.000037 -0.000864 0.003521 0.000021 0.000021 -0.000867 0.003520 0.000007 0.000007 -0.000868 0.003520 -0.000007 -0.000007 -0.000868 0.003521 -0.000021 -0.000021 -0.000867 0.003522 -0.000037 -0.000037 -0.000864 0.003524 -0.000055 -0.000055 -0.000861 0.003528 -0.000076 -0.000076 -0.000856 0.003531 -0.000101 -0.000101 -0.000850 0.003536 -0.000132 -0.000132 -0.000841 0.003541 -0.000170 -0.000170 -0.000830 0.003546 -0.000216 -0.000216 -0.000816 0.003551 -0.000271 -0.000271 -0.000798 0.003555 -0.000337 -0.000337 -0.000775 0.003556 -0.000414 -0.000414 -0.000744 0.003554 -0.000505 -0.000505 -0.000705 0.003545 -0.000606 -0.000606 -0.000653 0.003527 -0.000715 -0.000715 -0.000588 0.003498 -0.000826 -0.000826 -0.000505 0.003454 -0.000928 -0.000928 -0.000406 0.003397 -0.001007 -0.001007 -0.000292 0.003331 -0.001054 -0.001054 -0.000173 0.003263 -0.001066 -0.001066 -0.000056 0.003239 0.000964 0.000964 -0.000051 0.003302 0.000954 0.000954 -0.000156 0.003363 0.000920 0.000920 -0.000263 0.003418 0.000860 0.000860 -0.000366 0.003464 0.000782 0.000782 -0.000461 0.003500 0.000693 0.000693 -0.000543 0.003525 0.000601 0.000601 -0.000611 0.003542 0.000512 0.000512 -0.000667 0.003552 0.000429 0.000429 -0.000713 0.003558 0.000355 0.000355 -0.000749 0.003560 0.000291 0.000291 -0.000778 0.003560 0.000235 0.000235 -0.000801 0.003559 0.000188 0.000188 -0.000819 0.003557 0.000149 0.000149 -0.000833 0.003555 0.000115 0.000115 -0.000844 0.003553 0.000087 0.000087 -0.000853 0.003551 0.000064 0.000064 -0.000860 0.003549 0.000043 0.000043 -0.000865 0.003548 0.000025 0.000025 -0.000868 0.003548 0.000008 0.000008 -0.000869 0.003548 -0.000008 -0.000008 -0.000869 0.003548 -0.000025 -0.000025 -0.000868 0.003549 -0.000043 -0.000043 -0.000865 0.003551 -0.000064 -0.000064 -0.000860 0.003553 -0.000087 -0.000087 -0.000853 0.003555 -0.000115 -0.000115 -0.000844 0.003557 -0.000149 -0.000149 -0.000833 0.003559 -0.000188 -0.000188 -0.000819 0.003560 -0.000235 -0.000235 -0.000801 0.003560 -0.000291 -0.000291 -0.000778 0.003558 -0.000355 -0.000355 -0.000749 0.003552 -0.000429 -0.000429 -0.000713 0.003542 -0.000512 -0.000512 -0.000667 0.003525 -0.000601 -0.000601 -0.000611 0.003500 -0.000693 -0.000693 -0.000543 0.003464 -0.000782 -0.000782 -0.000461 0.003418 -0.000860 -0.000860 -0.000366 0.003363 -0.000920 -0.000920 -0.000263 0.003302 -0.000954 -0.000954 -0.000156 0.003239 -0.000964 -0.000964 -0.000051 0.003223 0.000869 0.000869 -0.000047 0.003281 0.000861 0.000861 -0.000143 0.003338 0.000834 0.000834 -0.000241 0.003391 0.000789 0.000789 -0.000337 0.003438 0.000728 0.000728 -0.000426 0.003476 0.000656 0.000656 -0.000506 0.003507 0.000580 0.000580 -0.000575 0.003529 0.000503 0.000503 -0.000634 0.003546 0.000429 0.000429 -0.000683 0.003557 0.000361 0.000361 -0.000724 0.003564 0.000300 0.000300 -0.000757 0.003569 0.000247 0.000247 -0.000784 0.003572 0.000200 0.000200 -0.000806 0.003573 0.000160 0.000160 -0.000823 0.003573 0.000126 0.000126 -0.000837 0.003573 0.000096 0.000096 -0.000848 0.003573 0.000071 0.000071 -0.000857 0.003573 0.000048 0.000048 -0.000863 0.003572 0.000028 0.000028 -0.000867 0.003572 0.000009 0.000009 -0.000869 0.003572 -0.000009 -0.000009 -0.000869 0.003572 -0.000028 -0.000028 -0.000867 0.003573 -0.000048 -0.000048 -0.000863 0.003573 -0.000071 -0.000071 -0.000857 0.003573 -0.000096 -0.000096 -0.000848 0.003573 -0.000126 -0.000126 -0.000837 0.003573 -0.000160 -0.000160 -0.000823 0.003572 -0.000200 -0.000200 -0.000806 0.003569 -0.000247 -0.000247 -0.000784 0.003564 -0.000300 -0.000300 -0.000757 0.003557 -0.000361 -0.000361 -0.000724 0.003546 -0.000429 -0.000429 -0.000683 0.003529 -0.000503 -0.000503 -0.000634 0.003507 -0.000580 -0.000580 -0.000575 0.003476 -0.000656 -0.000656 -0.000506 0.003438 -0.000728 -0.000728 -0.000426 0.003391 -0.000789 -0.000789 -0.000337 0.003338 -0.000834 -0.000834 -0.000241 0.003281 -0.000861 -0.000861 -0.000143 0.003223 -0.000869 -0.000869 -0.000047 0.003211 0.000780 0.000780 -0.000044 0.003266 0.000773 0.000773 -0.000134 0.003320 0.000752 0.000752 -0.000224 0.003371 0.000717 0.000717 -0.000314 0.003417 0.000668 0.000668 -0.000398 0.003457 0.000610 0.000610 -0.000475 0.003491 0.000547 0.000547 -0.000544 0.003518 0.000481 0.000481 -0.000605 0.003538 0.000417 0.000417 -0.000656 0.003554 0.000356 0.000356 -0.000700 0.003566 0.000300 0.000300 -0.000737 0.003575 0.000250 0.000250 -0.000767 0.003581 0.000205 0.000205 -0.000792 0.003585 0.000166 0.000166 -0.000813 0.003588 0.000131 0.000131 -0.000829 0.003590 0.000101 0.000101 -0.000842 0.003592 0.000075 0.000075 -0.000852 0.003592 0.000051 0.000051 -0.000860 0.003593 0.000030 0.000030 -0.000864 0.003593 0.000010 0.000010 -0.000867 0.003593 -0.000010 -0.000010 -0.000867 0.003593 -0.000030 -0.000030 -0.000864 0.003592 -0.000051 -0.000051 -0.000860 0.003592 -0.000075 -0.000075 -0.000852 0.003590 -0.000101 -0.000101 -0.000842 0.003588 -0.000131 -0.000131 -0.000829 0.003585 -0.000166 -0.000166 -0.000813 0.003581 -0.000205 -0.000205 -0.000792 0.003575 -0.000250 -0.000250 -0.000767 0.003566 -0.000300 -0.000300 -0.000737 0.003554 -0.000356 -0.000356 -0.000700 0.003538 -0.000417 -0.000417 -0.000656 0.003518 -0.000481 -0.000481 -0.000605 0.003491 -0.000547 -0.000547 -0.000544 0.003457 -0.000610 -0.000610 -0.000475 0.003417 -0.000668 -0.000668 -0.000398 0.003371 -0.000717 -0.000717 -0.000314 0.003320 -0.000752 -0.000752 -0.000224 0.003266 -0.000773 -0.000773 -0.000134 0.003211 -0.000780 -0.000780 -0.000044 0.003204 0.000696 0.000696 -0.000042 0.003256 0.000690 0.000690 -0.000126 0.003307 0.000673 0.000673 -0.000212 0.003356 0.000645 0.000645 -0.000296 0.003402 0.000606 0.000606 -0.000376 0.003442 0.000559 0.000559 -0.000451 0.003477 0.000506 0.000506 -0.000519 0.003507 0.000451 0.000451 -0.000579 0.003531 0.000396 0.000396 -0.000632 0.003551 0.000342 0.000342 -0.000678 0.003566 0.000292 0.000292 -0.000718 0.003578 0.000245 0.000245 -0.000751 0.003588 0.000203 0.000203 -0.000779 0.003595 0.000166 0.000166 -0.000802 0.003600 0.000133 0.000133 -0.000820 0.003604 0.000103 0.000103 -0.000835 0.003607 0.000077 0.000077 -0.000847 0.003609 0.000053 0.000053 -0.000855 0.003610 0.000031 0.000031 -0.000861 0.003610 0.000010 0.000010 -0.000863 0.003610 -0.000010 -0.000010 -0.000863 0.003610 -0.000031 -0.000031 -0.000861 0.003609 -0.000053 -0.000053 -0.000855 0.003607 -0.000077 -0.000077 -0.000847 0.003604 -0.000103 -0.000103 -0.000835 0.003600 -0.000133 -0.000133 -0.000820 0.003595 -0.000166 -0.000166 -0.000802 0.003588 -0.000203 -0.000203 -0.000779 0.003578 -0.000245 -0.000245 -0.000751 0.003566 -0.000292 -0.000292 -0.000718 0.003551 -0.000342 -0.000342 -0.000678 0.003531 -0.000396 -0.000396 -0.000632 0.003507 -0.000451 -0.000451 -0.000579 0.003477 -0.000506 -0.000506 -0.000519 0.003442 -0.000559 -0.000559 -0.000451 0.003402 -0.000606 -0.000606 -0.000376 0.003356 -0.000645 -0.000645 -0.000296 0.003307 -0.000673 -0.000673 -0.000212 0.003256 -0.000690 -0.000690 -0.000126 0.003204 -0.000696 -0.000696 -0.000042 0.003199 0.000615 0.000615 -0.000040 0.003248 0.000610 0.000610 -0.000121 0.003298 0.000596 0.000596 -0.000202 0.003345 0.000573 0.000573 -0.000282 0.003390 0.000542 0.000542 -0.000358 0.003430 0.000504 0.000504 -0.000431 0.003466 0.000461 0.000461 -0.000497 0.003498 0.000414 0.000414 -0.000558 0.003525 0.000367 0.000367 -0.000612 0.003547 0.000320 0.000320 -0.000659 0.003565 0.000276 0.000276 -0.000700 0.003580 0.000234 0.000234 -0.000735 0.003592 0.000196 0.000196 -0.000765 0.003602 0.000161 0.000161 -0.000790 0.003609 0.000130 0.000130 -0.000811 0.003615 0.000101 0.000101 -0.000828 0.003619 0.000076 0.000076 -0.000841 0.003622 0.000053 0.000053 -0.000850 0.003624 0.000031 0.000031 -0.000856 0.003625 0.000010 0.000010 -0.000859 0.003625 -0.000010 -0.000010 -0.000859 0.003624 -0.000031 -0.000031 -0.000856 0.003622 -0.000053 -0.000053 -0.000850 0.003619 -0.000076 -0.000076 -0.000841 0.003615 -0.000101 -0.000101 -0.000828 0.003609 -0.000130 -0.000130 -0.000811 0.003602 -0.000161 -0.000161 -0.000790 0.003592 -0.000196 -0.000196 -0.000765 0.003580 -0.000234 -0.000234 -0.000735 0.003565 -0.000276 -0.000276 -0.000700 0.003547 -0.000320 -0.000320 -0.000659 0.003525 -0.000367 -0.000367 -0.000612 0.003498 -0.000414 -0.000414 -0.000558 0.003466 -0.000461 -0.000461 -0.000497 0.003430 -0.000504 -0.000504 -0.000431 0.003390 -0.000542 -0.000542 -0.000358 0.003345 -0.000573 -0.000573 -0.000282 0.003298 -0.000596 -0.000596 -0.000202 0.003248 -0.000610 -0.000610 -0.000121 0.003199 -0.000615 -0.000615 -0.000040 0.003195 0.000537 0.000537 -0.000039 0.003243 0.000532 0.000532 -0.000116 0.003291 0.000521 0.000521 -0.000194 0.003337 0.000503 0.000503 -0.000270 0.003381 0.000478 0.000478 -0.000344 0.003421 0.000447 0.000447 -0.000414 0.003458 0.000411 0.000411 -0.000480 0.003490 0.000373 0.000373 -0.000540 0.003519 0.000333 0.000333 -0.000594 0.003543 0.000293 0.000293 -0.000642 0.003564 0.000254 0.000254 -0.000685 0.003581 0.000218 0.000218 -0.000721 0.003595 0.000183 0.000183 -0.000753 0.003607 0.000152 0.000152 -0.000780 0.003616 0.000123 0.000123 -0.000802 0.003623 0.000097 0.000097 -0.000820 0.003629 0.000073 0.000073 -0.000834 0.003633 0.000051 0.000051 -0.000844 0.003635 0.000030 0.000030 -0.000851 0.003637 0.000010 0.000010 -0.000855 0.003637 -0.000010 -0.000010 -0.000855 0.003635 -0.000030 -0.000030 -0.000851 0.003633 -0.000051 -0.000051 -0.000844 0.003629 -0.000073 -0.000073 -0.000834 0.003623 -0.000097 -0.000097 -0.000820 0.003616 -0.000123 -0.000123 -0.000802 0.003607 -0.000152 -0.000152 -0.000780 0.003595 -0.000183 -0.000183 -0.000753 0.003581 -0.000218 -0.000218 -0.000721 0.003564 -0.000254 -0.000254 -0.000685 0.003543 -0.000293 -0.000293 -0.000642 0.003519 -0.000333 -0.000333 -0.000594 0.003490 -0.000373 -0.000373 -0.000540 0.003458 -0.000411 -0.000411 -0.000480 0.003421 -0.000447 -0.000447 -0.000414 0.003381 -0.000478 -0.000478 -0.000344 0.003337 -0.000503 -0.000503 -0.000270 0.003291 -0.000521 -0.000521 -0.000194 0.003243 -0.000532 -0.000532 -0.000116 0.003195 -0.000537 -0.000537 -0.000039 0.003193 0.000461 0.000461 -0.000037 0.003240 0.000458 0.000458 -0.000113 0.003286 0.000448 0.000448 -0.000188 0.003331 0.000434 0.000434 -0.000261 0.003374 0.000413 0.000413 -0.000333 0.003414 0.000388 0.000388 -0.000401 0.003451 0.000359 0.000359 -0.000465 0.003484 0.000328 0.000328 -0.000525 0.003514 0.000295 0.000295 -0.000579 0.003540 0.000261 0.000261 -0.000628 0.003562 0.000228 0.000228 -0.000671 0.003582 0.000196 0.000196 -0.000709 0.003598 0.000167 0.000167 -0.000742 0.003611 0.000139 0.000139 -0.000770 0.003622 0.000113 0.000113 -0.000794 0.003630 0.000089 0.000089 -0.000813 0.003637 0.000067 0.000067 -0.000828 0.003642 0.000047 0.000047 -0.000839 0.003645 0.000028 0.000028 -0.000846 0.003646 0.000009 0.000009 -0.000850 0.003646 -0.000009 -0.000009 -0.000850 0.003645 -0.000028 -0.000028 -0.000846 0.003642 -0.000047 -0.000047 -0.000839 0.003637 -0.000067 -0.000067 -0.000828 0.003630 -0.000089 -0.000089 -0.000813 0.003622 -0.000113 -0.000113 -0.000794 0.003611 -0.000139 -0.000139 -0.000770 0.003598 -0.000167 -0.000167 -0.000742 0.003582 -0.000196 -0.000196 -0.000709 0.003562 -0.000228 -0.000228 -0.000671 0.003540 -0.000261 -0.000261 -0.000628 0.003514 -0.000295 -0.000295 -0.000579 0.003484 -0.000328 -0.000328 -0.000525 0.003451 -0.000359 -0.000359 -0.000465 0.003414 -0.000388 -0.000388 -0.000401 0.003374 -0.000413 -0.000413 -0.000333 0.003331 -0.000434 -0.000434 -0.000261 0.003286 -0.000448 -0.000448 -0.000188 0.003240 -0.000458 -0.000458 -0.000113 0.003193 -0.000461 -0.000461 -0.000037 0.003192 0.000388 0.000388 -0.000037 0.003238 0.000384 0.000384 -0.000110 0.003283 0.000377 0.000377 -0.000183 0.003326 0.000365 0.000365 -0.000254 0.003369 0.000349 0.000349 -0.000324 0.003409 0.000329 0.000329 -0.000391 0.003446 0.000306 0.000306 -0.000454 0.003479 0.000280 0.000280 -0.000512 0.003510 0.000253 0.000253 -0.000566 0.003537 0.000226 0.000226 -0.000615 0.003561 0.000198 0.000198 -0.000659 0.003581 0.000172 0.000172 -0.000698 0.003599 0.000146 0.000146 -0.000732 0.003614 0.000122 0.000122 -0.000761 0.003626 0.000100 0.000100 -0.000786 0.003635 0.000079 0.000079 -0.000806 0.003643 0.000060 0.000060 -0.000822 0.003648 0.000042 0.000042 -0.000834 0.003652 0.000025 0.000025 -0.000841 0.003654 0.000008 0.000008 -0.000845 0.003654 -0.000008 -0.000008 -0.000845 0.003652 -0.000025 -0.000025 -0.000841 0.003648 -0.000042 -0.000042 -0.000834 0.003643 -0.000060 -0.000060 -0.000822 0.003635 -0.000079 -0.000079 -0.000806 0.003626 -0.000100 -0.000100 -0.000786 0.003614 -0.000122 -0.000122 -0.000761 0.003599 -0.000146 -0.000146 -0.000732 0.003581 -0.000172 -0.000172 -0.000698 0.003561 -0.000198 -0.000198 -0.000659 0.003537 -0.000226 -0.000226 -0.000615 0.003510 -0.000253 -0.000253 -0.000566 0.003479 -0.000280 -0.000280 -0.000512 0.003446 -0.000306 -0.000306 -0.000454 0.003409 -0.000329 -0.000329 -0.000391 0.003369 -0.000349 -0.000349 -0.000324 0.003326 -0.000365 -0.000365 -0.000254 0.003283 -0.000377 -0.000377 -0.000183 0.003238 -0.000384 -0.000384 -0.000110 0.003192 -0.000388 -0.000388 -0.000037 0.003191 0.000315 0.000315 -0.000036 0.003236 0.000313 0.000313 -0.000108 0.003280 0.000307 0.000307 -0.000179 0.003323 0.000298 0.000298 -0.000249 0.003365 0.000285 0.000285 -0.000317 0.003404 0.000270 0.000270 -0.000382 0.003441 0.000251 0.000251 -0.000445 0.003476 0.000231 0.000231 -0.000503 0.003507 0.000210 0.000210 -0.000556 0.003535 0.000188 0.000188 -0.000606 0.003559 0.000166 0.000166 -0.000650 0.003581 0.000144 0.000144 -0.000689 0.003600 0.000123 0.000123 -0.000724 0.003615 0.000103 0.000103 -0.000754 0.003629 0.000085 0.000085 -0.000779 0.003639 0.000068 0.000068 -0.000800 0.003647 0.000051 0.000051 -0.000817 0.003654 0.000036 0.000036 -0.000829 0.003657 0.000021 0.000021 -0.000837 0.003659 0.000007 0.000007 -0.000841 0.003659 -0.000007 -0.000007 -0.000841 0.003657 -0.000021 -0.000021 -0.000837 0.003654 -0.000036 -0.000036 -0.000829 0.003647 -0.000051 -0.000051 -0.000817 0.003639 -0.000068 -0.000068 -0.000800 0.003629 -0.000085 -0.000085 -0.000779 0.003615 -0.000103 -0.000103 -0.000754 0.003600 -0.000123 -0.000123 -0.000724 0.003581 -0.000144 -0.000144 -0.000689 0.003559 -0.000166 -0.000166 -0.000650 0.003535 -0.000188 -0.000188 -0.000606 0.003507 -0.000210 -0.000210 -0.000556 0.003476 -0.000231 -0.000231 -0.000503 0.003441 -0.000251 -0.000251 -0.000445 0.003404 -0.000270 -0.000270 -0.000382 0.003365 -0.000285 -0.000285 -0.000317 0.003323 -0.000298 -0.000298 -0.000249 0.003280 -0.000307 -0.000307 -0.000179 0.003236 -0.000313 -0.000313 -0.000108 0.003191 -0.000315 -0.000315 -0.000036 0.003191 0.000244 0.000244 -0.000035 0.003235 0.000242 0.000242 -0.000106 0.003279 0.000238 0.000238 -0.000176 0.003321 0.000231 0.000231 -0.000245 0.003362 0.000221 0.000221 -0.000312 0.003402 0.000210 0.000210 -0.000376 0.003438 0.000196 0.000196 -0.000437 0.003473 0.000181 0.000181 -0.000495 0.003504 0.000165 0.000165 -0.000549 0.003533 0.000148 0.000148 -0.000598 0.003558 0.000131 0.000131 -0.000642 0.003581 0.000114 0.000114 -0.000682 0.003600 0.000098 0.000098 -0.000717 0.003617 0.000083 0.000083 -0.000748 0.003631 0.000068 0.000068 -0.000774 0.003642 0.000054 0.000054 -0.000795 0.003651 0.000041 0.000041 -0.000812 0.003657 0.000029 0.000029 -0.000825 0.003662 0.000017 0.000017 -0.000833 0.003664 0.000006 0.000006 -0.000837 0.003664 -0.000006 -0.000006 -0.000837 0.003662 -0.000017 -0.000017 -0.000833 0.003657 -0.000029 -0.000029 -0.000825 0.003651 -0.000041 -0.000041 -0.000812 0.003642 -0.000054 -0.000054 -0.000795 0.003631 -0.000068 -0.000068 -0.000774 0.003617 -0.000083 -0.000083 -0.000748 0.003600 -0.000098 -0.000098 -0.000717 0.003581 -0.000114 -0.000114 -0.000682 0.003558 -0.000131 -0.000131 -0.000642 0.003533 -0.000148 -0.000148 -0.000598 0.003504 -0.000165 -0.000165 -0.000549 0.003473 -0.000181 -0.000181 -0.000495 0.003438 -0.000196 -0.000196 -0.000437 0.003402 -0.000210 -0.000210 -0.000376 0.003362 -0.000221 -0.000221 -0.000312 0.003321 -0.000231 -0.000231 -0.000245 0.003279 -0.000238 -0.000238 -0.000176 0.003235 -0.000242 -0.000242 -0.000106 0.003191 -0.000244 -0.000244 -0.000035 0.003191 0.000174 0.000174 -0.000035 0.003234 0.000172 0.000172 -0.000105 0.003277 0.000169 0.000169 -0.000174 0.003320 0.000164 0.000164 -0.000242 0.003360 0.000158 0.000158 -0.000308 0.003399 0.000150 0.000150 -0.000372 0.003436 0.000140 0.000140 -0.000432 0.003471 0.000130 0.000130 -0.000490 0.003503 0.000118 0.000118 -0.000543 0.003531 0.000107 0.000107 -0.000592 0.003557 0.000095 0.000095 -0.000637 0.003580 0.000083 0.000083 -0.000677 0.003600 0.000071 0.000071 -0.000712 0.003618 0.000060 0.000060 -0.000743 0.003632 0.000049 0.000049 -0.000770 0.003644 0.000040 0.000040 -0.000791 0.003653 0.000030 0.000030 -0.000809 0.003660 0.000021 0.000021 -0.000821 0.003665 0.000013 0.000013 -0.000830 0.003667 0.000004 0.000004 -0.000834 0.003667 -0.000004 -0.000004 -0.000834 0.003665 -0.000013 -0.000013 -0.000830 0.003660 -0.000021 -0.000021 -0.000821 0.003653 -0.000030 -0.000030 -0.000809 0.003644 -0.000040 -0.000040 -0.000791 0.003632 -0.000049 -0.000049 -0.000770 0.003618 -0.000060 -0.000060 -0.000743 0.003600 -0.000071 -0.000071 -0.000712 0.003580 -0.000083 -0.000083 -0.000677 0.003557 -0.000095 -0.000095 -0.000637 0.003531 -0.000107 -0.000107 -0.000592 0.003503 -0.000118 -0.000118 -0.000543 0.003471 -0.000130 -0.000130 -0.000490 0.003436 -0.000140 -0.000140 -0.000432 0.003399 -0.000150 -0.000150 -0.000372 0.003360 -0.000158 -0.000158 -0.000308 0.003320 -0.000164 -0.000164 -0.000242 0.003277 -0.000169 -0.000169 -0.000174 0.003234 -0.000172 -0.000172 -0.000105 0.003191 -0.000174 -0.000174 -0.000035 0.003191 0.000104 0.000104 -0.000035 0.003234 0.000103 0.000103 -0.000104 0.003277 0.000101 0.000101 -0.000173 0.003319 0.000099 0.000099 -0.000240 0.003359 0.000095 0.000095 -0.000306 0.003398 0.000090 0.000090 -0.000369 0.003435 0.000084 0.000084 -0.000429 0.003470 0.000078 0.000078 -0.000486 0.003501 0.000071 0.000071 -0.000539 0.003531 0.000064 0.000064 -0.000588 0.003557 0.000057 0.000057 -0.000633 0.003580 0.000050 0.000050 -0.000673 0.003601 0.000043 0.000043 -0.000709 0.003618 0.000036 0.000036 -0.000740 0.003633 0.000030 0.000030 -0.000767 0.003645 0.000024 0.000024 -0.000789 0.003655 0.000018 0.000018 -0.000806 0.003662 0.000013 0.000013 -0.000819 0.003667 0.000008 0.000008 -0.000828 0.003669 0.000003 0.000003 -0.000832 0.003669 -0.000003 -0.000003 -0.000832 0.003667 -0.000008 -0.000008 -0.000828 0.003662 -0.000013 -0.000013 -0.000819 0.003655 -0.000018 -0.000018 -0.000806 0.003645 -0.000024 -0.000024 -0.000789 0.003633 -0.000030 -0.000030 -0.000767 0.003618 -0.000036 -0.000036 -0.000740 0.003601 -0.000043 -0.000043 -0.000709 0.003580 -0.000050 -0.000050 -0.000673 0.003557 -0.000057 -0.000057 -0.000633 0.003531 -0.000064 -0.000064 -0.000588 0.003501 -0.000071 -0.000071 -0.000539 0.003470 -0.000078 -0.000078 -0.000486 0.003435 -0.000084 -0.000084 -0.000429 0.003398 -0.000090 -0.000090 -0.000369 0.003359 -0.000095 -0.000095 -0.000306 0.003319 -0.000099 -0.000099 -0.000240 0.003277 -0.000101 -0.000101 -0.000173 0.003234 -0.000103 -0.000103 -0.000104 0.003191 -0.000104 -0.000104 -0.000035 0.003191 0.000035 0.000035 -0.000035 0.003234 0.000034 0.000034 -0.000104 0.003277 0.000034 0.000034 -0.000172 0.003318 0.000033 0.000033 -0.000239 0.003359 0.000032 0.000032 -0.000304 0.003398 0.000030 0.000030 -0.000367 0.003434 0.000028 0.000028 -0.000427 0.003469 0.000026 0.000026 -0.000484 0.003501 0.000024 0.000024 -0.000537 0.003530 0.000021 0.000021 -0.000586 0.003556 0.000019 0.000019 -0.000631 0.003580 0.000017 0.000017 -0.000672 0.003601 0.000014 0.000014 -0.000707 0.003618 0.000012 0.000012 -0.000739 0.003633 0.000010 0.000010 -0.000765 0.003646 0.000008 0.000008 -0.000787 0.003655 0.000006 0.000006 -0.000805 0.003663 0.000004 0.000004 -0.000818 0.003667 0.000003 0.000003 -0.000827 0.003670 0.000001 0.000001 -0.000831 0.003670 -0.000001 -0.000001 -0.000831 0.003667 -0.000003 -0.000003 -0.000827 0.003663 -0.000004 -0.000004 -0.000818 0.003655 -0.000006 -0.000006 -0.000805 0.003646 -0.000008 -0.000008 -0.000787 0.003633 -0.000010 -0.000010 -0.000765 0.003618 -0.000012 -0.000012 -0.000739 0.003601 -0.000014 -0.000014 -0.000707 0.003580 -0.000017 -0.000017 -0.000672 0.003556 -0.000019 -0.000019 -0.000631 0.003530 -0.000021 -0.000021 -0.000586 0.003501 -0.000024 -0.000024 -0.000537 0.003469 -0.000026 -0.000026 -0.000484 0.003434 -0.000028 -0.000028 -0.000427 0.003398 -0.000030 -0.000030 -0.000367 0.003359 -0.000032 -0.000032 -0.000304 0.003318 -0.000033 -0.000033 -0.000239 0.003277 -0.000034 -0.000034 -0.000172 0.003234 -0.000034 -0.000034 -0.000104 0.003191 -0.000035 -0.000035 -0.000035 0.003191 -0.000035 -0.000035 -0.000035 0.003234 -0.000034 -0.000034 -0.000104 0.003277 -0.000034 -0.000034 -0.000172 0.003318 -0.000033 -0.000033 -0.000239 0.003359 -0.000032 -0.000032 -0.000304 0.003398 -0.000030 -0.000030 -0.000367 0.003434 -0.000028 -0.000028 -0.000427 0.003469 -0.000026 -0.000026 -0.000484 0.003501 -0.000024 -0.000024 -0.000537 0.003530 -0.000021 -0.000021 -0.000586 0.003556 -0.000019 -0.000019 -0.000631 0.003580 -0.000017 -0.000017 -0.000672 0.003601 -0.000014 -0.000014 -0.000707 0.003618 -0.000012 -0.000012 -0.000739 0.003633 -0.000010 -0.000010 -0.000765 0.003646 -0.000008 -0.000008 -0.000787 0.003655 -0.000006 -0.000006 -0.000805 0.003663 -0.000004 -0.000004 -0.000818 0.003667 -0.000003 -0.000003 -0.000827 0.003670 -0.000001 -0.000001 -0.000831 0.003670 0.000001 0.000001 -0.000831 0.003667 0.000003 0.000003 -0.000827 0.003663 0.000004 0.000004 -0.000818 0.003655 0.000006 0.000006 -0.000805 0.003646 0.000008 0.000008 -0.000787 0.003633 0.000010 0.000010 -0.000765 0.003618 0.000012 0.000012 -0.000739 0.003601 0.000014 0.000014 -0.000707 0.003580 0.000017 0.000017 -0.000672 0.003556 0.000019 0.000019 -0.000631 0.003530 0.000021 0.000021 -0.000586 0.003501 0.000024 0.000024 -0.000537 0.003469 0.000026 0.000026 -0.000484 0.003434 0.000028 0.000028 -0.000427 0.003398 0.000030 0.000030 -0.000367 0.003359 0.000032 0.000032 -0.000304 0.003318 0.000033 0.000033 -0.000239 0.003277 0.000034 0.000034 -0.000172 0.003234 0.000034 0.000034 -0.000104 0.003191 0.000035 0.000035 -0.000035 0.003191 -0.000104 -0.000104 -0.000035 0.003234 -0.000103 -0.000103 -0.000104 0.003277 -0.000101 -0.000101 -0.000173 0.003319 -0.000099 -0.000099 -0.000240 0.003359 -0.000095 -0.000095 -0.000306 0.003398 -0.000090 -0.000090 -0.000369 0.003435 -0.000084 -0.000084 -0.000429 0.003470 -0.000078 -0.000078 -0.000486 0.003501 -0.000071 -0.000071 -0.000539 0.003531 -0.000064 -0.000064 -0.000588 0.003557 -0.000057 -0.000057 -0.000633 0.003580 -0.000050 -0.000050 -0.000673 0.003601 -0.000043 -0.000043 -0.000709 0.003618 -0.000036 -0.000036 -0.000740 0.003633 -0.000030 -0.000030 -0.000767 0.003645 -0.000024 -0.000024 -0.000789 0.003655 -0.000018 -0.000018 -0.000806 0.003662 -0.000013 -0.000013 -0.000819 0.003667 -0.000008 -0.000008 -0.000828 0.003669 -0.000003 -0.000003 -0.000832 0.003669 0.000003 0.000003 -0.000832 0.003667 0.000008 0.000008 -0.000828 0.003662 0.000013 0.000013 -0.000819 0.003655 0.000018 0.000018 -0.000806 0.003645 0.000024 0.000024 -0.000789 0.003633 0.000030 0.000030 -0.000767 0.003618 0.000036 0.000036 -0.000740 0.003601 0.000043 0.000043 -0.000709 0.003580 0.000050 0.000050 -0.000673 0.003557 0.000057 0.000057 -0.000633 0.003531 0.000064 0.000064 -0.000588 0.003501 0.000071 0.000071 -0.000539 0.003470 0.000078 0.000078 -0.000486 0.003435 0.000084 0.000084 -0.000429 0.003398 0.000090 0.000090 -0.000369 0.003359 0.000095 0.000095 -0.000306 0.003319 0.000099 0.000099 -0.000240 0.003277 0.000101 0.000101 -0.000173 0.003234 0.000103 0.000103 -0.000104 0.003191 0.000104 0.000104 -0.000035 0.003191 -0.000174 -0.000174 -0.000035 0.003234 -0.000172 -0.000172 -0.000105 0.003277 -0.000169 -0.000169 -0.000174 0.003320 -0.000164 -0.000164 -0.000242 0.003360 -0.000158 -0.000158 -0.000308 0.003399 -0.000150 -0.000150 -0.000372 0.003436 -0.000140 -0.000140 -0.000432 0.003471 -0.000130 -0.000130 -0.000490 0.003503 -0.000118 -0.000118 -0.000543 0.003531 -0.000107 -0.000107 -0.000592 0.003557 -0.000095 -0.000095 -0.000637 0.003580 -0.000083 -0.000083 -0.000677 0.003600 -0.000071 -0.000071 -0.000712 0.003618 -0.000060 -0.000060 -0.000743 0.003632 -0.000049 -0.000049 -0.000770 0.003644 -0.000040 -0.000040 -0.000791 0.003653 -0.000030 -0.000030 -0.000809 0.003660 -0.000021 -0.000021 -0.000821 0.003665 -0.000013 -0.000013 -0.000830 0.003667 -0.000004 -0.000004 -0.000834 0.003667 0.000004 0.000004 -0.000834 0.003665 0.000013 0.000013 -0.000830 0.003660 0.000021 0.000021 -0.000821 0.003653 0.000030 0.000030 -0.000809 0.003644 0.000040 0.000040 -0.000791 0.003632 0.000049 0.000049 -0.000770 0.003618 0.000060 0.000060 -0.000743 0.003600 0.000071 0.000071 -0.000712 0.003580 0.000083 0.000083 -0.000677 0.003557 0.000095 0.000095 -0.000637 0.003531 0.000107 0.000107 -0.000592 0.003503 0.000118 0.000118 -0.000543 0.003471 0.000130 0.000130 -0.000490 0.003436 0.000140 0.000140 -0.000432 0.003399 0.000150 0.000150 -0.000372 0.003360 0.000158 0.000158 -0.000308 0.003320 0.000164 0.000164 -0.000242 0.003277 0.000169 0.000169 -0.000174 0.003234 0.000172 0.000172 -0.000105 0.003191 0.000174 0.000174 -0.000035 0.003191 -0.000244 -0.000244 -0.000035 0.003235 -0.000242 -0.000242 -0.000106 0.003279 -0.000238 -0.000238 -0.000176 0.003321 -0.000231 -0.000231 -0.000245 0.003362 -0.000221 -0.000221 -0.000312 0.003402 -0.000210 -0.000210 -0.000376 0.003438 -0.000196 -0.000196 -0.000437 0.003473 -0.000181 -0.000181 -0.000495 0.003504 -0.000165 -0.000165 -0.000549 0.003533 -0.000148 -0.000148 -0.000598 0.003558 -0.000131 -0.000131 -0.000642 0.003581 -0.000114 -0.000114 -0.000682 0.003600 -0.000098 -0.000098 -0.000717 0.003617 -0.000083 -0.000083 -0.000748 0.003631 -0.000068 -0.000068 -0.000774 0.003642 -0.000054 -0.000054 -0.000795 0.003651 -0.000041 -0.000041 -0.000812 0.003657 -0.000029 -0.000029 -0.000825 0.003662 -0.000017 -0.000017 -0.000833 0.003664 -0.000006 -0.000006 -0.000837 0.003664 0.000006 0.000006 -0.000837 0.003662 0.000017 0.000017 -0.000833 0.003657 0.000029 0.000029 -0.000825 0.003651 0.000041 0.000041 -0.000812 0.003642 0.000054 0.000054 -0.000795 0.003631 0.000068 0.000068 -0.000774 0.003617 0.000083 0.000083 -0.000748 0.003600 0.000098 0.000098 -0.000717 0.003581 0.000114 0.000114 -0.000682 0.003558 0.000131 0.000131 -0.000642 0.003533 0.000148 0.000148 -0.000598 0.003504 0.000165 0.000165 -0.000549 0.003473 0.000181 0.000181 -0.000495 0.003438 0.000196 0.000196 -0.000437 0.003402 0.000210 0.000210 -0.000376 0.003362 0.000221 0.000221 -0.000312 0.003321 0.000231 0.000231 -0.000245 0.003279 0.000238 0.000238 -0.000176 0.003235 0.000242 0.000242 -0.000106 0.003191 0.000244 0.000244 -0.000035 0.003191 -0.000315 -0.000315 -0.000036 0.003236 -0.000313 -0.000313 -0.000108 0.003280 -0.000307 -0.000307 -0.000179 0.003323 -0.000298 -0.000298 -0.000249 0.003365 -0.000285 -0.000285 -0.000317 0.003404 -0.000270 -0.000270 -0.000382 0.003441 -0.000251 -0.000251 -0.000445 0.003476 -0.000231 -0.000231 -0.000503 0.003507 -0.000210 -0.000210 -0.000556 0.003535 -0.000188 -0.000188 -0.000606 0.003559 -0.000166 -0.000166 -0.000650 0.003581 -0.000144 -0.000144 -0.000689 0.003600 -0.000123 -0.000123 -0.000724 0.003615 -0.000103 -0.000103 -0.000754 0.003629 -0.000085 -0.000085 -0.000779 0.003639 -0.000068 -0.000068 -0.000800 0.003647 -0.000051 -0.000051 -0.000817 0.003654 -0.000036 -0.000036 -0.000829 0.003657 -0.000021 -0.000021 -0.000837 0.003659 -0.000007 -0.000007 -0.000841 0.003659 0.000007 0.000007 -0.000841 0.003657 0.000021 0.000021 -0.000837 0.003654 0.000036 0.000036 -0.000829 0.003647 0.000051 0.000051 -0.000817 0.003639 0.000068 0.000068 -0.000800 0.003629 0.000085 0.000085 -0.000779 0.003615 0.000103 0.000103 -0.000754 0.003600 0.000123 0.000123 -0.000724 0.003581 0.000144 0.000144 -0.000689 0.003559 0.000166 0.000166 -0.000650 0.003535 0.000188 0.000188 -0.000606 0.003507 0.000210 0.000210 -0.000556 0.003476 0.000231 0.000231 -0.000503 0.003441 0.000251 0.000251 -0.000445 0.003404 0.000270 0.000270 -0.000382 0.003365 0.000285 0.000285 -0.000317 0.003323 0.000298 0.000298 -0.000249 0.003280 0.000307 0.000307 -0.000179 0.003236 0.000313 0.000313 -0.000108 0.003191 0.000315 0.000315 -0.000036 0.003192 -0.000388 -0.000388 -0.000037 0.003238 -0.000384 -0.000384 -0.000110 0.003283 -0.000377 -0.000377 -0.000183 0.003326 -0.000365 -0.000365 -0.000254 0.003369 -0.000349 -0.000349 -0.000324 0.003409 -0.000329 -0.000329 -0.000391 0.003446 -0.000306 -0.000306 -0.000454 0.003479 -0.000280 -0.000280 -0.000512 0.003510 -0.000253 -0.000253 -0.000566 0.003537 -0.000226 -0.000226 -0.000615 0.003561 -0.000198 -0.000198 -0.000659 0.003581 -0.000172 -0.000172 -0.000698 0.003599 -0.000146 -0.000146 -0.000732 0.003614 -0.000122 -0.000122 -0.000761 0.003626 -0.000100 -0.000100 -0.000786 0.003635 -0.000079 -0.000079 -0.000806 0.003643 -0.000060 -0.000060 -0.000822 0.003648 -0.000042 -0.000042 -0.000834 0.003652 -0.000025 -0.000025 -0.000841 0.003654 -0.000008 -0.000008 -0.000845 0.003654 0.000008 0.000008 -0.000845 0.003652 0.000025 0.000025 -0.000841 0.003648 0.000042 0.000042 -0.000834 0.003643 0.000060 0.000060 -0.000822 0.003635 0.000079 0.000079 -0.000806 0.003626 0.000100 0.000100 -0.000786 0.003614 0.000122 0.000122 -0.000761 0.003599 0.000146 0.000146 -0.000732 0.003581 0.000172 0.000172 -0.000698 0.003561 0.000198 0.000198 -0.000659 0.003537 0.000226 0.000226 -0.000615 0.003510 0.000253 0.000253 -0.000566 0.003479 0.000280 0.000280 -0.000512 0.003446 0.000306 0.000306 -0.000454 0.003409 0.000329 0.000329 -0.000391 0.003369 0.000349 0.000349 -0.000324 0.003326 0.000365 0.000365 -0.000254 0.003283 0.000377 0.000377 -0.000183 0.003238 0.000384 0.000384 -0.000110 0.003192 0.000388 0.000388 -0.000037 0.003193 -0.000461 -0.000461 -0.000037 0.003240 -0.000458 -0.000458 -0.000113 0.003286 -0.000448 -0.000448 -0.000188 0.003331 -0.000434 -0.000434 -0.000261 0.003374 -0.000413 -0.000413 -0.000333 0.003414 -0.000388 -0.000388 -0.000401 0.003451 -0.000359 -0.000359 -0.000465 0.003484 -0.000328 -0.000328 -0.000525 0.003514 -0.000295 -0.000295 -0.000579 0.003540 -0.000261 -0.000261 -0.000628 0.003562 -0.000228 -0.000228 -0.000671 0.003582 -0.000196 -0.000196 -0.000709 0.003598 -0.000167 -0.000167 -0.000742 0.003611 -0.000139 -0.000139 -0.000770 0.003622 -0.000113 -0.000113 -0.000794 0.003630 -0.000089 -0.000089 -0.000813 0.003637 -0.000067 -0.000067 -0.000828 0.003642 -0.000047 -0.000047 -0.000839 0.003645 -0.000028 -0.000028 -0.000846 0.003646 -0.000009 -0.000009 -0.000850 0.003646 0.000009 0.000009 -0.000850 0.003645 0.000028 0.000028 -0.000846 0.003642 0.000047 0.000047 -0.000839 0.003637 0.000067 0.000067 -0.000828 0.003630 0.000089 0.000089 -0.000813 0.003622 0.000113 0.000113 -0.000794 0.003611 0.000139 0.000139 -0.000770 0.003598 0.000167 0.000167 -0.000742 0.003582 0.000196 0.000196 -0.000709 0.003562 0.000228 0.000228 -0.000671 0.003540 0.000261 0.000261 -0.000628 0.003514 0.000295 0.000295 -0.000579 0.003484 0.000328 0.000328 -0.000525 0.003451 0.000359 0.000359 -0.000465 0.003414 0.000388 0.000388 -0.000401 0.003374 0.000413 0.000413 -0.000333 0.003331 0.000434 0.000434 -0.000261 0.003286 0.000448 0.000448 -0.000188 0.003240 0.000458 0.000458 -0.000113 0.003193 0.000461 0.000461 -0.000037 0.003195 -0.000537 -0.000537 -0.000039 0.003243 -0.000532 -0.000532 -0.000116 0.003291 -0.000521 -0.000521 -0.000194 0.003337 -0.000503 -0.000503 -0.000270 0.003381 -0.000478 -0.000478 -0.000344 0.003421 -0.000447 -0.000447 -0.000414 0.003458 -0.000411 -0.000411 -0.000480 0.003490 -0.000373 -0.000373 -0.000540 0.003519 -0.000333 -0.000333 -0.000594 0.003543 -0.000293 -0.000293 -0.000642 0.003564 -0.000254 -0.000254 -0.000685 0.003581 -0.000218 -0.000218 -0.000721 0.003595 -0.000183 -0.000183 -0.000753 0.003607 -0.000152 -0.000152 -0.000780 0.003616 -0.000123 -0.000123 -0.000802 0.003623 -0.000097 -0.000097 -0.000820 0.003629 -0.000073 -0.000073 -0.000834 0.003633 -0.000051 -0.000051 -0.000844 0.003635 -0.000030 -0.000030 -0.000851 0.003637 -0.000010 -0.000010 -0.000855 0.003637 0.000010 0.000010 -0.000855 0.003635 0.000030 0.000030 -0.000851 0.003633 0.000051 0.000051 -0.000844 0.003629 0.000073 0.000073 -0.000834 0.003623 0.000097 0.000097 -0.000820 0.003616 0.000123 0.000123 -0.000802 0.003607 0.000152 0.000152 -0.000780 0.003595 0.000183 0.000183 -0.000753 0.003581 0.000218 0.000218 -0.000721 0.003564 0.000254 0.000254 -0.000685 0.003543 0.000293 0.000293 -0.000642 0.003519 0.000333 0.000333 -0.000594 0.003490 0.000373 0.000373 -0.000540 0.003458 0.000411 0.000411 -0.000480 0.003421 0.000447 0.000447 -0.000414 0.003381 0.000478 0.000478 -0.000344 0.003337 0.000503 0.000503 -0.000270 0.003291 0.000521 0.000521 -0.000194 0.003243 0.000532 0.000532 -0.000116 0.003195 0.000537 0.000537 -0.000039 0.003199 -0.000615 -0.000615 -0.000040 0.003248 -0.000610 -0.000610 -0.000121 0.003298 -0.000596 -0.000596 -0.000202 0.003345 -0.000573 -0.000573 -0.000282 0.003390 -0.000542 -0.000542 -0.000358 0.003430 -0.000504 -0.000504 -0.000431 0.003466 -0.000461 -0.000461 -0.000497 0.003498 -0.000414 -0.000414 -0.000558 0.003525 -0.000367 -0.000367 -0.000612 0.003547 -0.000320 -0.000320 -0.000659 0.003565 -0.000276 -0.000276 -0.000700 0.003580 -0.000234 -0.000234 -0.000735 0.003592 -0.000196 -0.000196 -0.000765 0.003602 -0.000161 -0.000161 -0.000790 0.003609 -0.000130 -0.000130 -0.000811 0.003615 -0.000101 -0.000101 -0.000828 0.003619 -0.000076 -0.000076 -0.000841 0.003622 -0.000053 -0.000053 -0.000850 0.003624 -0.000031 -0.000031 -0.000856 0.003625 -0.000010 -0.000010 -0.000859 0.003625 0.000010 0.000010 -0.000859 0.003624 0.000031 0.000031 -0.000856 0.003622 0.000053 0.000053 -0.000850 0.003619 0.000076 0.000076 -0.000841 0.003615 0.000101 0.000101 -0.000828 0.003609 0.000130 0.000130 -0.000811 0.003602 0.000161 0.000161 -0.000790 0.003592 0.000196 0.000196 -0.000765 0.003580 0.000234 0.000234 -0.000735 0.003565 0.000276 0.000276 -0.000700 0.003547 0.000320 0.000320 -0.000659 0.003525 0.000367 0.000367 -0.000612 0.003498 0.000414 0.000414 -0.000558 0.003466 0.000461 0.000461 -0.000497 0.003430 0.000504 0.000504 -0.000431 0.003390 0.000542 0.000542 -0.000358 0.003345 0.000573 0.000573 -0.000282 0.003298 0.000596 0.000596 -0.000202 0.003248 0.000610 0.000610 -0.000121 0.003199 0.000615 0.000615 -0.000040 0.003204 -0.000696 -0.000696 -0.000042 0.003256 -0.000690 -0.000690 -0.000126 0.003307 -0.000673 -0.000673 -0.000212 0.003356 -0.000645 -0.000645 -0.000296 0.003402 -0.000606 -0.000606 -0.000376 0.003442 -0.000559 -0.000559 -0.000451 0.003477 -0.000506 -0.000506 -0.000519 0.003507 -0.000451 -0.000451 -0.000579 0.003531 -0.000396 -0.000396 -0.000632 0.003551 -0.000342 -0.000342 -0.000678 0.003566 -0.000292 -0.000292 -0.000718 0.003578 -0.000245 -0.000245 -0.000751 0.003588 -0.000203 -0.000203 -0.000779 0.003595 -0.000166 -0.000166 -0.000802 0.003600 -0.000133 -0.000133 -0.000820 0.003604 -0.000103 -0.000103 -0.000835 0.003607 -0.000077 -0.000077 -0.000847 0.003609 -0.000053 -0.000053 -0.000855 0.003610 -0.000031 -0.000031 -0.000861 0.003610 -0.000010 -0.000010 -0.000863 0.003610 0.000010 0.000010 -0.000863 0.003610 0.000031 0.000031 -0.000861 0.003609 0.000053 0.000053 -0.000855 0.003607 0.000077 0.000077 -0.000847 0.003604 0.000103 0.000103 -0.000835 0.003600 0.000133 0.000133 -0.000820 0.003595 0.000166 0.000166 -0.000802 0.003588 0.000203 0.000203 -0.000779 0.003578 0.000245 0.000245 -0.000751 0.003566 0.000292 0.000292 -0.000718 0.003551 0.000342 0.000342 -0.000678 0.003531 0.000396 0.000396 -0.000632 0.003507 0.000451 0.000451 -0.000579 0.003477 0.000506 0.000506 -0.000519 0.003442 0.000559 0.000559 -0.000451 0.003402 0.000606 0.000606 -0.000376 0.003356 0.000645 0.000645 -0.000296 0.003307 0.000673 0.000673 -0.000212 0.003256 0.000690 0.000690 -0.000126 0.003204 0.000696 0.000696 -0.000042 0.003211 -0.000780 -0.000780 -0.000044 0.003266 -0.000773 -0.000773 -0.000134 0.003320 -0.000752 -0.000752 -0.000224 0.003371 -0.000717 -0.000717 -0.000314 0.003417 -0.000668 -0.000668 -0.000398 0.003457 -0.000610 -0.000610 -0.000475 0.003491 -0.000547 -0.000547 -0.000544 0.003518 -0.000481 -0.000481 -0.000605 0.003538 -0.000417 -0.000417 -0.000656 0.003554 -0.000356 -0.000356 -0.000700 0.003566 -0.000300 -0.000300 -0.000737 0.003575 -0.000250 -0.000250 -0.000767 0.003581 -0.000205 -0.000205 -0.000792 0.003585 -0.000166 -0.000166 -0.000813 0.003588 -0.000131 -0.000131 -0.000829 0.003590 -0.000101 -0.000101 -0.000842 0.003592 -0.000075 -0.000075 -0.000852 0.003592 -0.000051 -0.000051 -0.000860 0.003593 -0.000030 -0.000030 -0.000864 0.003593 -0.000010 -0.000010 -0.000867 0.003593 0.000010 0.000010 -0.000867 0.003593 0.000030 0.000030 -0.000864 0.003592 0.000051 0.000051 -0.000860 0.003592 0.000075 0.000075 -0.000852 0.003590 0.000101 0.000101 -0.000842 0.003588 0.000131 0.000131 -0.000829 0.003585 0.000166 0.000166 -0.000813 0.003581 0.000205 0.000205 -0.000792 0.003575 0.000250 0.000250 -0.000767 0.003566 0.000300 0.000300 -0.000737 0.003554 0.000356 0.000356 -0.000700 0.003538 0.000417 0.000417 -0.000656 0.003518 0.000481 0.000481 -0.000605 0.003491 0.000547 0.000547 -0.000544 0.003457 0.000610 0.000610 -0.000475 0.003417 0.000668 0.000668 -0.000398 0.003371 0.000717 0.000717 -0.000314 0.003320 0.000752 0.000752 -0.000224 0.003266 0.000773 0.000773 -0.000134 0.003211 0.000780 0.000780 -0.000044 0.003223 -0.000869 -0.000869 -0.000047 0.003281 -0.000861 -0.000861 -0.000143 0.003338 -0.000834 -0.000834 -0.000241 0.003391 -0.000789 -0.000789 -0.000337 0.003438 -0.000728 -0.000728 -0.000426 0.003476 -0.000656 -0.000656 -0.000506 0.003507 -0.000580 -0.000580 -0.000575 0.003529 -0.000503 -0.000503 -0.000634 0.003546 -0.000429 -0.000429 -0.000683 0.003557 -0.000361 -0.000361 -0.000724 0.003564 -0.000300 -0.000300 -0.000757 0.003569 -0.000247 -0.000247 -0.000784 0.003572 -0.000200 -0.000200 -0.000806 0.003573 -0.000160 -0.000160 -0.000823 0.003573 -0.000126 -0.000126 -0.000837 0.003573 -0.000096 -0.000096 -0.000848 0.003573 -0.000071 -0.000071 -0.000857 0.003573 -0.000048 -0.000048 -0.000863 0.003572 -0.000028 -0.000028 -0.000867 0.003572 -0.000009 -0.000009 -0.000869 0.003572 0.000009 0.000009 -0.000869 0.003572 0.000028 0.000028 -0.000867 0.003573 0.000048 0.000048 -0.000863 0.003573 0.000071 0.000071 -0.000857 0.003573 0.000096 0.000096 -0.000848 0.003573 0.000126 0.000126 -0.000837 0.003573 0.000160 0.000160 -0.000823 0.003572 0.000200 0.000200 -0.000806 0.003569 0.000247 0.000247 -0.000784 0.003564 0.000300 0.000300 -0.000757 0.003557 0.000361 0.000361 -0.000724 0.003546 0.000429 0.000429 -0.000683 0.003529 0.000503 0.000503 -0.000634 0.003507 0.000580 0.000580 -0.000575 0.003476 0.000656 0.000656 -0.000506 0.003438 0.000728 0.000728 -0.000426 0.003391 0.000789 0.000789 -0.000337 0.003338 0.000834 0.000834 -0.000241 0.003281 0.000861 0.000861 -0.000143 0.003223 0.000869 0.000869 -0.000047 0.003239 -0.000964 -0.000964 -0.000051 0.003302 -0.000954 -0.000954 -0.000156 0.003363 -0.000920 -0.000920 -0.000263 0.003418 -0.000860 -0.000860 -0.000366 0.003464 -0.000782 -0.000782 -0.000461 0.003500 -0.000693 -0.000693 -0.000543 0.003525 -0.000601 -0.000601 -0.000611 0.003542 -0.000512 -0.000512 -0.000667 0.003552 -0.000429 -0.000429 -0.000713 0.003558 -0.000355 -0.000355 -0.000749 0.003560 -0.000291 -0.000291 -0.000778 0.003560 -0.000235 -0.000235 -0.000801 0.003559 -0.000188 -0.000188 -0.000819 0.003557 -0.000149 -0.000149 -0.000833 0.003555 -0.000115 -0.000115 -0.000844 0.003553 -0.000087 -0.000087 -0.000853 0.003551 -0.000064 -0.000064 -0.000860 0.003549 -0.000043 -0.000043 -0.000865 0.003548 -0.000025 -0.000025 -0.000868 0.003548 -0.000008 -0.000008 -0.000869 0.003548 0.000008 0.000008 -0.000869 0.003548 0.000025 0.000025 -0.000868 0.003549 0.000043 0.000043 -0.000865 0.003551 0.000064 0.000064 -0.000860 0.003553 0.000087 0.000087 -0.000853 0.003555 0.000115 0.000115 -0.000844 0.003557 0.000149 0.000149 -0.000833 0.003559 0.000188 0.000188 -0.000819 0.003560 0.000235 0.000235 -0.000801 0.003560 0.000291 0.000291 -0.000778 0.003558 0.000355 0.000355 -0.000749 0.003552 0.000429 0.000429 -0.000713 0.003542 0.000512 0.000512 -0.000667 0.003525 0.000601 0.000601 -0.000611 0.003500 0.000693 0.000693 -0.000543 0.003464 0.000782 0.000782 -0.000461 0.003418 0.000860 0.000860 -0.000366 0.003363 0.000920 0.000920 -0.000263 0.003302 0.000954 0.000954 -0.000156 0.003239 0.000964 0.000964 -0.000051 0.003263 -0.001066 -0.001066 -0.000056 0.003331 -0.001054 -0.001054 -0.000173 0.003397 -0.001007 -0.001007 -0.000292 0.003454 -0.000928 -0.000928 -0.000406 0.003498 -0.000826 -0.000826 -0.000505 0.003527 -0.000715 -0.000715 -0.000588 0.003545 -0.000606 -0.000606 -0.000653 0.003554 -0.000505 -0.000505 -0.000705 0.003556 -0.000414 -0.000414 -0.000744 0.003555 -0.000337 -0.000337 -0.000775 0.003551 -0.000271 -0.000271 -0.000798 0.003546 -0.000216 -0.000216 -0.000816 0.003541 -0.000170 -0.000170 -0.000830 0.003536 -0.000132 -0.000132 -0.000841 0.003531 -0.000101 -0.000101 -0.000850 0.003528 -0.000076 -0.000076 -0.000856 0.003524 -0.000055 -0.000055 -0.000861 0.003522 -0.000037 -0.000037 -0.000864 0.003521 -0.000021 -0.000021 -0.000867 0.003520 -0.000007 -0.000007 -0.000868 0.003520 0.000007 0.000007 -0.000868 0.003521 0.000021 0.000021 -0.000867 0.003522 0.000037 0.000037 -0.000864 0.003524 0.000055 0.000055 -0.000861 0.003528 0.000076 0.000076 -0.000856 0.003531 0.000101 0.000101 -0.000850 0.003536 0.000132 0.000132 -0.000841 0.003541 0.000170 0.000170 -0.000830 0.003546 0.000216 0.000216 -0.000816 0.003551 0.000271 0.000271 -0.000798 0.003555 0.000337 0.000337 -0.000775 0.003556 0.000414 0.000414 -0.000744 0.003554 0.000505 0.000505 -0.000705 0.003545 0.000606 0.000606 -0.000653 0.003527 0.000715 0.000715 -0.000588 0.003498 0.000826 0.000826 -0.000505 0.003454 0.000928 0.000928 -0.000406 0.003397 0.001007 0.001007 -0.000292 0.003331 0.001054 0.001054 -0.000173 0.003263 0.001066 0.001066 -0.000056 0.003298 -0.001179 -0.001179 -0.000064 0.003375 -0.001162 -0.001162 -0.000197 0.003446 -0.001095 -0.001095 -0.000333 0.003503 -0.000985 -0.000985 -0.000458 0.003540 -0.000852 -0.000852 -0.000561 0.003559 -0.000715 -0.000715 -0.000641 0.003565 -0.000588 -0.000588 -0.000701 0.003562 -0.000477 -0.000477 -0.000744 0.003555 -0.000382 -0.000382 -0.000776 0.003546 -0.000304 -0.000304 -0.000799 0.003536 -0.000240 -0.000240 -0.000817 0.003526 -0.000187 -0.000187 -0.000830 0.003517 -0.000145 -0.000145 -0.000839 0.003510 -0.000111 -0.000111 -0.000847 0.003503 -0.000084 -0.000084 -0.000853 0.003498 -0.000062 -0.000062 -0.000857 0.003494 -0.000044 -0.000044 -0.000860 0.003491 -0.000029 -0.000029 -0.000862 0.003489 -0.000017 -0.000017 -0.000864 0.003488 -0.000005 -0.000005 -0.000864 0.003488 0.000005 0.000005 -0.000864 0.003489 0.000017 0.000017 -0.000864 0.003491 0.000029 0.000029 -0.000862 0.003494 0.000044 0.000044 -0.000860 0.003498 0.000062 0.000062 -0.000857 0.003503 0.000084 0.000084 -0.000853 0.003510 0.000111 0.000111 -0.000847 0.003517 0.000145 0.000145 -0.000839 0.003526 0.000187 0.000187 -0.000830 0.003536 0.000240 0.000240 -0.000817 0.003546 0.000304 0.000304 -0.000799 0.003555 0.000382 0.000382 -0.000776 0.003562 0.000477 0.000477 -0.000744 0.003565 0.000588 0.000588 -0.000701 0.003559 0.000715 0.000715 -0.000641 0.003540 0.000852 0.000852 -0.000561 0.003503 0.000985 0.000985 -0.000458 0.003446 0.001095 0.001095 -0.000333 0.003375 0.001162 0.001162 -0.000197 0.003298 0.001179 0.001179 -0.000064 0.003352 -0.001306 -0.001306 -0.000075 0.003440 -0.001279 -0.001279 -0.000233 0.003517 -0.001176 -0.001176 -0.000393 0.003567 -0.001019 -0.001019 -0.000529 0.003589 -0.000845 -0.000845 -0.000631 0.003590 -0.000681 -0.000681 -0.000703 0.003580 -0.000541 -0.000541 -0.000751 0.003563 -0.000425 -0.000425 -0.000783 0.003545 -0.000332 -0.000332 -0.000805 0.003528 -0.000258 -0.000258 -0.000821 0.003513 -0.000198 -0.000198 -0.000832 0.003499 -0.000152 -0.000152 -0.000839 0.003487 -0.000115 -0.000115 -0.000845 0.003478 -0.000086 -0.000086 -0.000849 0.003470 -0.000064 -0.000064 -0.000852 0.003464 -0.000046 -0.000046 -0.000855 0.003459 -0.000032 -0.000032 -0.000857 0.003455 -0.000021 -0.000021 -0.000858 0.003453 -0.000012 -0.000012 -0.000859 0.003452 -0.000004 -0.000004 -0.000859 0.003452 0.000004 0.000004 -0.000859 0.003453 0.000012 0.000012 -0.000859 0.003455 0.000021 0.000021 -0.000858 0.003459 0.000032 0.000032 -0.000857 0.003464 0.000046 0.000046 -0.000855 0.003470 0.000064 0.000064 -0.000852 0.003478 0.000086 0.000086 -0.000849 0.003487 0.000115 0.000115 -0.000845 0.003499 0.000152 0.000152 -0.000839 0.003513 0.000198 0.000198 -0.000832 0.003528 0.000258 0.000258 -0.000821 0.003545 0.000332 0.000332 -0.000805 0.003563 0.000425 0.000425 -0.000783 0.003580 0.000541 0.000541 -0.000751 0.003590 0.000681 0.000681 -0.000703 0.003589 0.000845 0.000845 -0.000631 0.003567 0.001019 0.001019 -0.000529 0.003517 0.001176 0.001176 -0.000393 0.003440 0.001279 0.001279 -0.000233 0.003352 0.001306 0.001306 -0.000075 0.003437 -0.001454 -0.001454 -0.000093 0.003541 -0.001403 -0.001403 -0.000291 0.003618 -0.001233 -0.001233 -0.000482 0.003648 -0.001004 -0.001004 -0.000625 0.003640 -0.000782 -0.000782 -0.000715 0.003614 -0.000600 -0.000600 -0.000768 0.003582 -0.000457 -0.000457 -0.000799 0.003551 -0.000348 -0.000348 -0.000818 0.003523 -0.000264 -0.000264 -0.000829 0.003499 -0.000199 -0.000199 -0.000836 0.003479 -0.000150 -0.000150 -0.000841 0.003463 -0.000112 -0.000112 -0.000844 0.003449 -0.000083 -0.000083 -0.000846 0.003439 -0.000060 -0.000060 -0.000848 0.003431 -0.000043 -0.000043 -0.000849 0.003424 -0.000030 -0.000030 -0.000850 0.003419 -0.000021 -0.000021 -0.000851 0.003416 -0.000013 -0.000013 -0.000851 0.003414 -0.000007 -0.000007 -0.000851 0.003413 -0.000002 -0.000002 -0.000852 0.003413 0.000002 0.000002 -0.000852 0.003414 0.000007 0.000007 -0.000851 0.003416 0.000013 0.000013 -0.000851 0.003419 0.000021 0.000021 -0.000851 0.003424 0.000030 0.000030 -0.000850 0.003431 0.000043 0.000043 -0.000849 0.003439 0.000060 0.000060 -0.000848 0.003449 0.000083 0.000083 -0.000846 0.003463 0.000112 0.000112 -0.000844 0.003479 0.000150 0.000150 -0.000841 0.003499 0.000199 0.000199 -0.000836 0.003523 0.000264 0.000264 -0.000829 0.003551 0.000348 0.000348 -0.000818 0.003582 0.000457 0.000457 -0.000799 0.003614 0.000600 0.000600 -0.000768 0.003640 0.000782 0.000782 -0.000715 0.003648 0.001004 0.001004 -0.000625 0.003618 0.001233 0.001233 -0.000482 0.003541 0.001403 0.001403 -0.000291 0.003437 0.001454 0.001454 -0.000093 0.003585 -0.001633 -0.001633 -0.000128 0.003705 -0.001521 -0.001521 -0.000395 0.003765 -0.001215 -0.001215 -0.000620 0.003734 -0.000884 -0.000884 -0.000745 0.003675 -0.000638 -0.000638 -0.000801 0.003614 -0.000463 -0.000463 -0.000826 0.003562 -0.000339 -0.000339 -0.000837 0.003518 -0.000249 -0.000249 -0.000842 0.003483 -0.000183 -0.000183 -0.000844 0.003455 -0.000135 -0.000135 -0.000844 0.003434 -0.000098 -0.000098 -0.000844 0.003417 -0.000071 -0.000071 -0.000843 0.003403 -0.000051 -0.000051 -0.000843 0.003393 -0.000035 -0.000035 -0.000843 0.003386 -0.000024 -0.000024 -0.000843 0.003380 -0.000016 -0.000016 -0.000842 0.003376 -0.000010 -0.000010 -0.000842 0.003373 -0.000006 -0.000006 -0.000842 0.003372 -0.000003 -0.000003 -0.000842 0.003371 -0.000001 -0.000001 -0.000842 0.003371 0.000001 0.000001 -0.000842 0.003372 0.000003 0.000003 -0.000842 0.003373 0.000006 0.000006 -0.000842 0.003376 0.000010 0.000010 -0.000842 0.003380 0.000016 0.000016 -0.000842 0.003386 0.000024 0.000024 -0.000843 0.003393 0.000035 0.000035 -0.000843 0.003403 0.000051 0.000051 -0.000843 0.003417 0.000071 0.000071 -0.000843 0.003434 0.000098 0.000098 -0.000844 0.003455 0.000135 0.000135 -0.000844 0.003483 0.000183 0.000183 -0.000844 0.003518 0.000249 0.000249 -0.000842 0.003562 0.000339 0.000339 -0.000837 0.003614 0.000463 0.000463 -0.000826 0.003675 0.000638 0.000638 -0.000801 0.003734 0.000884 0.000884 -0.000745 0.003765 0.001215 0.001215 -0.000620 0.003705 0.001521 0.001521 -0.000395 0.003585 0.001633 0.001633 -0.000128 0.003866 -0.001886 -0.001886 -0.000215 0.004025 -0.001539 -0.001539 -0.000608 0.003914 -0.000944 -0.000944 -0.000818 0.003774 -0.000605 -0.000605 -0.000858 0.003659 -0.000405 -0.000405 -0.000866 0.003572 -0.000279 -0.000279 -0.000862 0.003507 -0.000197 -0.000197 -0.000856 0.003459 -0.000140 -0.000140 -0.000851 0.003422 -0.000100 -0.000100 -0.000846 0.003395 -0.000071 -0.000071 -0.000842 0.003375 -0.000050 -0.000050 -0.000839 0.003360 -0.000034 -0.000034 -0.000836 0.003350 -0.000023 -0.000023 -0.000835 0.003342 -0.000015 -0.000015 -0.000834 0.003336 -0.000009 -0.000009 -0.000833 0.003332 -0.000005 -0.000005 -0.000832 0.003330 -0.000003 -0.000003 -0.000832 0.003328 -0.000001 -0.000001 -0.000832 0.003327 -0.000001 -0.000001 -0.000832 0.003326 -0.000000 -0.000000 -0.000832 0.003326 0.000000 0.000000 -0.000832 0.003327 0.000001 0.000001 -0.000832 0.003328 0.000001 0.000001 -0.000832 0.003330 0.000003 0.000003 -0.000832 0.003332 0.000005 0.000005 -0.000832 0.003336 0.000009 0.000009 -0.000833 0.003342 0.000015 0.000015 -0.000834 0.003350 0.000023 0.000023 -0.000835 0.003360 0.000034 0.000034 -0.000836 0.003375 0.000050 0.000050 -0.000839 0.003395 0.000071 0.000071 -0.000842 0.003422 0.000100 0.000100 -0.000846 0.003459 0.000140 0.000140 -0.000851 0.003507 0.000197 0.000197 -0.000856 0.003572 0.000279 0.000279 -0.000862 0.003659 0.000405 0.000405 -0.000866 0.003774 0.000605 0.000605 -0.000858 0.003914 0.000944 0.000944 -0.000818 0.004025 0.001539 0.001539 -0.000608 0.003866 0.001886 0.001886 -0.000215 0.004823 -0.002036 -0.002036 -0.000519 0.004260 -0.000701 -0.000701 -0.000990 0.003898 -0.000343 -0.000343 -0.000933 0.003691 -0.000198 -0.000198 -0.000907 0.003559 -0.000126 -0.000126 -0.000881 0.003471 -0.000085 -0.000085 -0.000862 0.003411 -0.000058 -0.000058 -0.000849 0.003369 -0.000040 -0.000040 -0.000840 0.003339 -0.000027 -0.000027 -0.000833 0.003319 -0.000019 -0.000019 -0.000828 0.003305 -0.000012 -0.000012 -0.000825 0.003295 -0.000008 -0.000008 -0.000823 0.003289 -0.000005 -0.000005 -0.000822 0.003285 -0.000002 -0.000002 -0.000821 0.003283 -0.000001 -0.000001 -0.000820 0.003281 -0.000000 -0.000000 -0.000820 0.003281 0.000000 0.000000 -0.000820 0.003281 0.000000 0.000000 -0.000820 0.003281 0.000000 0.000000 -0.000820 0.003281 0.000000 0.000000 -0.000820 0.003281 -0.000000 -0.000000 -0.000820 0.003281 -0.000000 -0.000000 -0.000820 0.003281 -0.000000 -0.000000 -0.000820 0.003281 -0.000000 -0.000000 -0.000820 0.003281 0.000000 0.000000 -0.000820 0.003283 0.000001 0.000001 -0.000820 0.003285 0.000002 0.000002 -0.000821 0.003289 0.000005 0.000005 -0.000822 0.003295 0.000008 0.000008 -0.000823 0.003305 0.000012 0.000012 -0.000825 0.003319 0.000019 0.000019 -0.000828 0.003339 0.000027 0.000027 -0.000833 0.003369 0.000040 0.000040 -0.000840 0.003411 0.000058 0.000058 -0.000849 0.003471 0.000085 0.000085 -0.000862 0.003559 0.000126 0.000126 -0.000881 0.003691 0.000198 0.000198 -0.000907 0.003898 0.000343 0.000343 -0.000933 0.004260 0.000701 0.000701 -0.000990 0.004823 0.002036 0.002036 -0.000519 
</DataArray>
<DataArray type="Float64" Name="stress" NumberOfComponents="4" format="ascii">
7457.794043 1213.275457 1213.275457 1090.629367 6376.754415 417.583930 417.583930 118.596147 5823.890399 204.199363 204.199363 66.395620 5504.693632 118.182366 118.182366 24.485917 5305.541363 75.346775 75.346775 14.343898 5173.521897 50.360822 50.360822 8.586115 5083.116524 34.468142 34.468142 5.661389 5020.107095 23.788441 23.788441 3.868377 4975.932829 16.363305 16.363305 2.719557 4945.063999 11.096347 11.096347 1.937874 4923.746170 7.327235 7.327235 1.385551 4909.328092 4.634196 4.634196 0.983182 4899.881337 2.734336 2.734336 0.683659 4893.972639 1.429592 1.429592 0.457584 4890.521957 0.575708 0.575708 0.286033 4888.710993 0.063565 0.063565 0.156514 4887.922808 -0.192564 -0.192564 0.060664 4887.701389 -0.262709 -0.262709 -0.007116 4887.724581 -0.206475 -0.206475 -0.050483 4887.786413 -0.076849 -0.076849 -0.071646 4887.786413 0.076849 0.076849 -0.071646 4887.724581 0.206475 0.206475 -0.050483 4887.701389 0.262709 0.262709 -0.007116 4887.922808 0.192564 0.192564 0.060664 4888.710993 -0.063565 -0.063565 0.156514 4890.521957 -0.575708 -0.575708 0.286033 4893.972639 -1.429592 -1.429592 0.457584 4899.881337 -2.734336 -2.734336 0.683659 4909.328092 -4.634196 -4.634196 0.983182 4923.746170 -7.327235 -7.327235 1.385551 4945.063999 -11.096347 -11.096347 1.937874 4975.932829 -16.363305 -16.363305 2.719557 5020.107095 -23.788441 -23.788441 3.868377 5083.116524 -34.468142 -34.468142 5.661389 5173.521897 -50.360822 -50.360822 8.586115 5305.541363 -75.346775 -75.346775 14.343898 5504.693632 -118.182366 -118.182366 24.485917 5823.890399 -204.199363 -204.199363 66.395620 6376.754415 -417.583930 -417.583930 118.596147 7457.794043 -1213.275457 -1213.275457 1090.629367 6058.367550 1124.105717 1124.105717 1193.680316 6155.100659 917.034995 917.034995 632.257209 5895.409723 562.478951 562.478951 255.359648 5655.996808 360.715737 360.715737 135.168242 5470.806996 241.070845 241.070845 77.219752 5334.035178 166.507190 166.507190 48.726444 5233.086317 117.308092 117.308092 32.433772 5158.312226 83.485302 83.485302 22.465406 5102.733980 59.544472 59.544472 15.951296 5061.391740 42.273646 42.273646 11.492914 5030.704376 29.682494 29.682494 8.326227 5008.041267 20.476058 20.476058 6.013051 4991.437297 13.774751 13.774751 4.288347 4979.405216 8.957438 8.957438 2.985572 4970.810280 5.569168 5.569168 1.996733 4964.785424 3.264594 3.264594 1.250200 4960.673176 1.771905 1.771905 0.697840 4957.985707 0.868914 0.868914 0.307340 4956.377538 0.366536 0.366536 0.057547 4955.627451 0.096752 0.096752 -0.064332 4955.627451 -0.096752 -0.096752 -0.064332 4956.377538 -0.366536 -0.366536 0.057547 4957.985707 -0.868914 -0.868914 0.307340 4960.673176 -1.771905 -1.771905 0.697840 4964.785424 -3.264594 -3.264594 1.250200 4970.810280 -5.569168 -5.569168 1.996733 4979.405216 -8.957438 -8.957438 2.985572 4991.437297 -13.774751 -13.774751 4.288347 5008.041267 -20.476058 -20.476058 6.013051 5030.704376 -29.682494 -29.682494 8.326227 5061.391740 -42.273646 -42.273646 11.492914 5102.733980 -59.544472 -59.544472 15.951296 5158.312226 -83.485302 -83.485302 22.465406 5233.086317 -117.308092 -117.308092 32.433772 5334.035178 -166.507190 -166.507190 48.726444 5470.806996 -241.070845 -241.070845 77.219752 5655.996808 -360.715737 -360.715737 135.168242 5895.409723 -562.478951 -562.478951 255.359648 6155.100659 -917.034995 -917.034995 632.257209 6058.367550 -1124.105717 -1124.105717 1193.680316 5645.714886 972.911568 972.911568 1220.272852 5731.063968 906.261879 906.261879 844.825898 5736.112845 723.966588 723.966588 510.195071 5637.182354 526.615452 526.615452 298.857155 5521.233988 380.124654 380.124654 187.330544 5415.581961 275.925666 275.925666 123.091792 5327.485906 201.846726 201.846726 84.381350 5256.473172 148.382103 148.382103 59.598876 5200.143769 109.215903 109.215903 42.989971 5155.856706 80.185265 80.185265 31.414441 5121.261096 58.507068 58.507068 23.091936 5094.398787 42.272104 42.272104 16.960176 5073.682328 30.133273 30.133273 12.360795 5057.840637 21.111980 21.111980 8.871909 5045.864326 14.475903 14.475903 6.215958 5036.959505 9.659924 9.659924 4.206758 5030.511429 6.213611 6.213611 2.718112 5026.057021 3.765242 3.765242 1.664739 5023.264827 1.996252 1.996252 0.990547 5021.921110 0.622215 0.622215 0.661496 5021.921110 -0.622215 -0.622215 0.661496 5023.264827 -1.996252 -1.996252 0.990547 5026.057021 -3.765242 -3.765242 1.664739 5030.511429 -6.213611 -6.213611 2.718112 5036.959505 -9.659924 -9.659924 4.206758 5045.864326 -14.475903 -14.475903 6.215958 5057.840637 -21.111980 -21.111980 8.871909 5073.682328 -30.133273 -30.133273 12.360795 5094.398787 -42.272104 -42.272104 16.960176 5121.261096 -58.507068 -58.507068 23.091936 5155.856706 -80.185265 -80.185265 31.414441 5200.143769 -109.215903 -109.215903 42.989971 5256.473172 -148.382103 -148.382103 59.598876 5327.485906 -201.846726 -201.846726 84.381350 5415.581961 -275.925666 -275.925666 123.091792 5521.233988 -380.124654 -380.124654 187.330544 5637.182354 -526.615452 -526.615452 298.857155 5736.112845 -723.966588 -723.966588 510.195071 5731.063968 -906.261879 -906.261879 844.825898 5645.714886 -972.911568 -972.911568 1220.272852 5424.070298 866.578482 866.578482 1216.931167 5511.773895 836.354200 836.354200 943.922220 5557.514181 735.048787 735.048787 671.432422 5549.816503 598.297281 598.297281 456.842043 5500.969159 466.099492 466.099492 310.369503 5438.064426 357.492277 357.492277 215.715187 5375.104094 272.580363 272.580363 153.350921 5318.196167 207.288333 207.288333 111.209627 5269.236702 157.231882 157.231882 81.858217 5228.268298 118.816322 118.816322 60.848701 5194.584891 89.293333 89.293333 45.448780 5167.246530 66.601770 66.601770 33.941800 5145.304776 49.191640 49.191640 25.220478 5127.896018 35.882317 35.882317 18.553902 5114.274493 25.757592 25.757592 13.450035 5103.818854 18.090090 18.090090 9.572905 5096.027972 12.286946 12.286946 6.691622 5090.513278 7.850278 7.850278 4.648504 5086.990981 4.347720 4.347720 3.339026 5085.275628 1.389611 1.389611 2.699406 5085.275628 -1.389611 -1.389611 2.699406 5086.990981 -4.347720 -4.347720 3.339026 5090.513278 -7.850278 -7.850278 4.648504 5096.027972 -12.286946 -12.286946 6.691622 5103.818854 -18.090090 -18.090090 9.572905 5114.274493 -25.757592 -25.757592 13.450035 5127.896018 -35.882317 -35.882317 18.553902 5145.304776 -49.191640 -49.191640 25.220478 5167.246530 -66.601770 -66.601770 33.941800 5194.584891 -89.293333 -89.293333 45.448780 5228.268298 -118.816322 -118.816322 60.848701 5269.236702 -157.231882 -157.231882 81.858217 5318.196167 -207.288333 -207.288333 111.209627 5375.104094 -272.580363 -272.580363 153.350921 5438.064426 -357.492277 -357.492277 215.715187 5500.969159 -466.099492 -466.099492 310.369503 5549.816503 -598.297281 -598.297281 456.842043 5557.514181 -735.048787 -735.048787 671.432422 5511.773895 -836.354200 -836.354200 943.922220 5424.070298 -866.578482 -866.578482 1216.931167 5296.414757 778.308689 778.308689 1212.718346 5373.720199 762.156903 762.156903 996.423310 5432.403451 700.891289 700.891289 772.997288 5458.362260 607.315641 607.315641 576.375811 5453.118501 503.457178 503.457178 422.501130 5426.613962 405.953605 405.953605 309.724790 5390.262363 322.261463 322.261463 228.990347 5351.478122 253.364265 253.364265 170.968824 5314.357689 197.803064 197.803064 128.746737 5280.832633 153.458026 153.458026 97.530193 5251.609768 118.271793 118.271793 74.091884 5226.749045 90.467388 90.467388 56.258725 5205.996822 68.575779 68.575779 42.556223 5188.969961 51.398753 51.398753 31.972460 5175.255296 37.957140 37.957140 23.805455 5164.462081 27.441751 27.441751 17.564497 5156.248747 19.171899 19.171899 12.906133 5150.335855 12.561648 12.561648 9.592488 5146.511847 7.092505 7.092505 7.464224 5144.635237 2.290925 2.290925 6.423404 5144.635237 -2.290925 -2.290925 6.423404 5146.511847 -7.092505 -7.092505 7.464224 5150.335855 -12.561648 -12.561648 9.592488 5156.248747 -19.171899 -19.171899 12.906133 5164.462081 -27.441751 -27.441751 17.564497 5175.255296 -37.957140 -37.957140 23.805455 5188.969961 -51.398753 -51.398753 31.972460 5205.996822 -68.575779 -68.575779 42.556223 5226.749045 -90.467388 -90.467388 56.258725 5251.609768 -118.271793 -118.271793 74.091884 5280.832633 -153.458026 -153.458026 97.530193 5314.357689 -197.803064 -197.803064 128.746737 5351.478122 -253.364265 -253.364265 170.968824 5390.262363 -322.261463 -322.261463 228.990347 5426.613962 -405.953605 -405.953605 309.724790 5453.118501 -503.457178 -503.457178 422.501130 5458.362260 -607.315641 -607.315641 576.375811 5432.403451 -700.891289 -700.891289 772.997288 5373.720199 -762.156903 -762.156903 996.423310 5296.414757 -778.308689 -778.308689 1212.718346 5215.721304 702.672598 702.672598 1209.245653 5285.094962 692.403635 692.403635 1028.179810 5344.470372 652.284383 652.284383 839.446067 5384.540389 586.857687 586.857687 663.727278 5402.215591 507.635276 507.635276 514.322160 5400.886630 426.298984 426.298984 394.982183 5386.632065 350.629256 350.629256 302.887552 5365.335529 284.238942 284.238942 232.770040 5341.258521 227.935439 227.935439 179.411719 5317.108530 181.152433 181.152433 138.587323 5294.438193 142.778959 142.778959 107.114611 5274.041799 111.577975 111.577975 82.674160 5256.248487 86.368337 86.368337 63.594808 5241.118839 66.089670 66.089670 48.675775 5228.570228 49.813217 49.813217 37.053669 5218.454712 36.730099 36.730099 28.107748 5210.606633 26.131695 26.131695 21.393880 5204.871323 17.388539 17.388539 16.599197 5201.122141 9.930235 9.930235 13.511463 5199.270324 3.227043 3.227043 11.999084 5199.270324 -3.227043 -3.227043 11.999084 5201.122141 -9.930235 -9.930235 13.511463 5204.871323 -17.388539 -17.388539 16.599197 5210.606633 -26.131695 -26.131695 21.393880 5218.454712 -36.730099 -36.730099 28.107748 5228.570228 -49.813217 -49.813217 37.053669 5241.118839 -66.089670 -66.089670 48.675775 5256.248487 -86.368337 -86.368337 63.594808 5274.041799 -111.577975 -111.577975 82.674160 5294.438193 -142.778959 -142.778959 107.114611 5317.108530 -181.152433 -181.152433 138.587323 5341.258521 -227.935439 -227.935439 179.411719 5365.335529 -284.238942 -284.238942 232.770040 5386.632065 -350.629256 -350.629256 302.887552 5400.886630 -426.298984 -426.298984 394.982183 5402.215591 -507.635276 -507.635276 514.322160 5384.540389 -586.857687 -586.857687 663.727278 5344.470372 -652.284383 -652.284383 839.446067 5285.094962 -692.403635 -692.403635 1028.179810 5215.721304 -702.672598 -702.672598 1209.245653 5162.662211 635.492707 635.492707 1207.070248 5225.692481 628.120794 628.120794 1049.334070 5283.004098 600.060412 600.060412 885.261228 5328.191694 552.781867 552.781867 727.837810 5357.839331 492.378702 492.378702 587.044989 5372.215455 426.383438 426.383438 467.727400 5374.187729 361.124957 361.124957 370.206490 5367.486537 300.658963 300.658963 292.135201 5355.544290 246.965083 246.965083 230.223985 5341.002373 200.598506 200.598506 181.251147 5325.698298 161.307109 161.307109 142.477473 5310.819172 128.443814 128.443814 111.721542 5297.081408 101.207379 101.207379 87.303947 5284.882724 78.769015 78.769015 67.954487 5274.416218 60.332043 60.332043 52.722432 5265.750940 45.154751 45.154751 40.902239 5258.886875 32.554086 32.554086 31.976377 5253.791599 21.899918 21.899918 25.573180 5250.424148 12.604991 12.604991 21.436873 5248.750045 4.113128 4.113128 19.407274 5248.750045 -4.113128 -4.113128 19.407274 5250.424148 -12.604991 -12.604991 21.436873 5253.791599 -21.899918 -21.899918 25.573180 5258.886875 -32.554086 -32.554086 31.976377 5265.750940 -45.154751 -45.154751 40.902239 5274.416218 -60.332043 -60.332043 52.722432 5284.882724 -78.769015 -78.769015 67.954487 5297.081408 -101.207379 -101.207379 87.303947 5310.819172 -128.443814 -128.443814 111.721542 5325.698298 -161.307109 -161.307109 142.477473 5341.002373 -200.598506 -200.598506 181.251147 5355.544290 -246.965083 -246.965083 230.223985 5367.486537 -300.658963 -300.658963 292.135201 5374.187729 -361.124957 -361.124957 370.206490 5372.215455 -426.383438 -426.383438 467.727400 5357.839331 -492.378702 -492.378702 587.044989 5328.191694 -552.781867 -552.781867 727.837810 5283.004098 -600.060412 -600.060412 885.261228 5225.692481 -628.120794 -628.120794 1049.334070 5162.662211 -635.492707 -635.492707 1207.070248 5126.892057 574.422753 574.422753 1205.948047 5185.037107 568.642464 568.642464 1064.543222 5239.609804 547.975551 547.975551 918.328925 5286.228271 512.716177 512.716177 775.799506 5321.903251 466.151144 466.151144 644.221966 5345.798578 413.051140 413.051140 528.110740 5358.954909 358.089326 358.089326 429.058912 5363.491794 304.877635 304.877635 346.486103 5361.806056 255.708133 255.708133 278.620511 5356.070958 211.738932 211.738932 223.282895 5348.027259 173.323420 173.323420 178.349300 5338.964979 140.313499 140.313499 141.960242 5329.788079 112.279853 112.279853 112.578664 5321.101569 88.654120 88.654120 88.976382 5313.293057 68.813224 68.813224 70.193473 5306.599355 52.125509 52.125509 55.492742 5301.157141 37.973193 37.973193 44.318622 5297.039758 25.760748 25.760748 36.263667 5294.282943 14.915201 14.915201 31.043046 5292.901948 4.881929 4.881929 28.476422 5292.901948 -4.881929 -4.881929 28.476422 5294.282943 -14.915201 -14.915201 31.043046 5297.039758 -25.760748 -25.760748 36.263667 5301.157141 -37.973193 -37.973193 44.318622 5306.599355 -52.125509 -52.125509 55.492742 5313.293057 -68.813224 -68.813224 70.193473 5321.101569 -88.654120 -88.654120 88.976382 5329.788079 -112.279853 -112.279853 112.578664 5338.964979 -140.313499 -140.313499 141.960242 5348.027259 -173.323420 -173.323420 178.349300 5356.070958 -211.738932 -211.738932 223.282895 5361.806056 -255.708133 -255.708133 278.620511 5363.491794 -304.877635 -304.877635 346.486103 5358.954909 -358.089326 -358.089326 429.058912 5345.798578 -413.051140 -413.051140 528.110740 5321.903251 -466.151144 -466.151144 644.221966 5286.228271 -512.716177 -512.716177 775.799506 5239.609804 -547.975551 -547.975551 918.328925 5185.037107 -568.642464 -568.642464 1064.543222 5126.892057 -574.422753 -574.422753 1205.948047 5102.521691 517.908573 517.908573 1205.612102 5156.857303 513.116836 513.116836 1076.104479 5208.799962 497.283093 497.283093 943.124673 5255.268227 470.265720 470.265720 812.443195 5293.860651 433.872759 433.872759 689.358258 5323.420300 391.129574 391.129574 577.670626 5344.073989 345.362308 345.362308 479.341995 5356.884207 299.488638 299.488638 394.728339 5363.383645 255.670356 255.670356 323.090331 5365.186416 215.271641 215.271641 263.110698 5363.752349 178.986819 178.986819 213.281699 5360.285744 147.018716 147.018716 172.139457 5355.721284 119.242146 119.242146 138.379470 5350.753175 95.329289 95.329289 110.897408 5345.879605 74.836597 74.836597 88.790043 5341.447740 57.260825 57.260825 71.338245 5337.692798 42.072834 42.072834 57.984376 5334.769255 28.736340 28.736340 48.310290 5332.774234 16.716931 16.716931 42.018770 5331.763924 5.484988 5.484988 38.919444 5331.763924 -5.484988 -5.484988 38.919444 5332.774234 -16.716931 -16.716931 42.018770 5334.769255 -28.736340 -28.736340 48.310290 5337.692798 -42.072834 -42.072834 57.984376 5341.447740 -57.260825 -57.260825 71.338245 5345.879605 -74.836597 -74.836597 88.790043 5350.753175 -95.329289 -95.329289 110.897408 5355.721284 -119.242146 -119.242146 138.379470 5360.285744 -147.018716 -147.018716 172.139457 5363.752349 -178.986819 -178.986819 213.281699 5365.186416 -215.271641 -215.271641 263.110698 5363.383645 -255.670356 -255.670356 323.090331 5356.884207 -299.488638 -299.488638 394.728339 5344.073989 -345.362308 -345.362308 479.341995 5323.420300 -391.129574 -391.129574 577.670626 5293.860651 -433.872759 -433.872759 689.358258 5255.268227 -470.265720 -470.265720 812.443195 5208.799962 -497.283093 -497.283093 943.124673 5156.857303 -513.116836 -513.116836 1076.104479 5102.521691 -517.908573 -517.908573 1205.612102 5085.912645 464.886699 464.886699 1205.825698 5137.250004 460.783962 460.783962 1085.249392 5186.875962 448.297203 448.297203 962.280945 5232.567177 427.143176 427.143176 840.982064 5272.434908 398.331311 398.331311 725.264323 5305.324094 363.799692 363.799692 618.213164 5330.933650 325.884219 325.884219 521.759605 5349.691275 286.835885 286.835885 436.698853 5362.500171 248.510113 248.510113 362.930649 5370.477686 212.243649 212.243649 299.772957 5374.755292 178.867772 178.867772 246.244366 5376.358262 148.791814 148.791814 201.270607 5376.151656 122.106259 122.106259 163.813272 5374.830071 98.677388 98.677388 132.938265 5372.931012 78.222684 78.222684 107.844579 5370.858118 60.365946 60.365946 87.870140 5368.906128 44.675114 44.675114 72.486112 5367.283453 30.686831 30.686831 61.286697 5366.130566 17.921521 17.921521 53.978417 5365.533675 5.891999 5.891999 50.371015 5365.533675 -5.891999 -5.891999 50.371015 5366.130566 -17.921521 -17.921521 53.978417 5367.283453 -30.686831 -30.686831 61.286697 5368.906128 -44.675114 -44.675114 72.486112 5370.858118 -60.365946 -60.365946 87.870140 5372.931012 -78.222684 -78.222684 107.844579 5374.830071 -98.677388 -98.677388 132.938265 5376.151656 -122.106259 -122.106259 163.813272 5376.358262 -148.791814 -148.791814 201.270607 5374.755292 -178.867772 -178.867772 246.244366 5370.477686 -212.243649 -212.243649 299.772957 5362.500171 -248.510113 -248.510113 362.930649 5349.691275 -286.835885 -286.835885 436.698853 5330.933650 -325.884219 -325.884219 521.759605 5305.324094 -363.799692 -363.799692 618.213164 5272.434908 -398.331311 -398.331311 725.264323 5232.567177 -427.143176 -427.143176 840.982064 5186.875962 -448.297203 -448.297203 962.280945 5137.250004 -460.783962 -460.783962 1085.249392 5085.912645 -464.886699 -464.886699 1205.825698 5074.698004 414.592063 414.592063 1206.402992 5123.653176 411.023092 411.023092 1092.679312 5171.311030 400.977071 400.977071 977.413008 5216.023281 384.147134 384.147134 863.557226 5256.306684 361.100943 361.100943 754.051773 5291.118027 333.095985 333.095985 651.375162 5319.980804 301.769160 301.769160 557.277410 5342.959377 268.817665 268.817665 472.718913 5360.531288 235.755945 235.755945 397.967627 5373.423525 203.780046 203.780046 332.776982 5382.463721 173.727505 173.727505 276.576193 5388.471007 146.100971 146.100971 228.631656 5392.189885 121.123266 121.123266 188.164565 5394.258921 98.800521 98.800521 154.426690 5395.202876 78.980297 78.980297 126.743612 5395.438283 61.399251 61.399251 104.535740 5395.285205 45.719480 45.719480 87.325712 5394.980578 31.554816 31.554816 74.738400 5394.690495 18.489138 18.489138 66.497623 5394.520037 6.088812 6.088812 62.422097 5394.520037 -6.088812 -6.088812 62.422097 5394.690495 -18.489138 -18.489138 66.497623 5394.980578 -31.554816 -31.554816 74.738400 5395.285205 -45.719480 -45.719480 87.325712 5395.438283 -61.399251 -61.399251 104.535740 5395.202876 -78.980297 -78.980297 126.743612 5394.258921 -98.800521 -98.800521 154.426690 5392.189885 -121.123266 -121.123266 188.164565 5388.471007 -146.100971 -146.100971 228.631656 5382.463721 -173.727505 -173.727505 276.576193 5373.423525 -203.780046 -203.780046 332.776982 5360.531288 -235.755945 -235.755945 397.967627 5342.959377 -268.817664 -268.817664 472.718913 5319.980804 -301.769160 -301.769160 557.277410 5291.118027 -333.095985 -333.095985 651.375162 5256.306684 -361.100943 -361.100943 754.051773 5216.023281 -384.147134 -384.147134 863.557226 5171.311030 -400.977071 -400.977071 977.413008 5123.653176 -411.023092 -411.023092 1092.679312 5074.698004 -414.592063 -414.592063 1206.402992 5067.270854 366.454749 366.454749 1207.201010 5114.321095 363.336421 363.336421 1098.815268 5160.335612 355.155319 355.155319 989.549426 5204.060047 341.626433 341.626433 881.616146 5244.319105 323.068021 323.068021 777.270129 5280.206530 300.306373 300.306373 678.507213 5311.194250 274.491617 274.491617 586.859268 5337.148059 246.888708 246.888708 503.311811 5358.269401 218.698041 218.698041 428.329214 5374.998217 190.934771 190.934771 361.948782 5387.909814 164.370368 164.370368 303.902103 5397.627319 139.523691 139.523691 253.732531 5404.758540 116.683368 116.683368 210.892000 5409.856933 95.945116 95.945116 174.812175 5413.401776 77.252496 77.252496 144.952019 5415.791547 60.434543 60.434543 120.826875 5417.345174 45.237395 45.237395 102.024539 5418.307157 31.349346 31.349346 88.212970 5418.853861 18.419993 18.419993 79.143153 5419.099276 6.074642 6.074642 74.649526 5419.099276 -6.074642 -6.074642 74.649526 5418.853861 -18.419993 -18.419993 79.143153 5418.307157 -31.349346 -31.349346 88.212970 5417.345174 -45.237395 -45.237395 102.024539 5415.791547 -60.434543 -60.434543 120.826875 5413.401776 -77.252496 -77.252496 144.952019 5409.856933 -95.945116 -95.945116 174.812175 5404.758540 -116.683368 -116.683368 210.892000 5397.627319 -139.523691 -139.523691 253.732531 5387.909814 -164.370368 -164.370368 303.902103 5374.998217 -190.934771 -190.934771 361.948782 5358.269401 -218.698041 -218.698041 428.329214 5337.148059 -246.888708 -246.888708 503.311811 5311.194250 -274.491617 -274.491617 586.859268 5280.206530 -300.306373 -300.306373 678.507213 5244.319105 -323.068021 -323.068021 777.270129 5204.060047 -341.626433 -341.626433 881.616146 5160.335612 -355.155319 -355.155319 989.549426 5114.321095 -363.336421 -363.336421 1098.815268 5067.270854 -366.454749 -366.454749 1207.201010 5062.504362 320.036963 320.036963 1208.110454 5108.026796 317.324017 317.324017 1103.920943 5152.684158 310.629306 310.629306 999.366936 5195.497043 299.705098 299.705098 896.154112 5235.520689 284.726793 284.726793 796.049804 5271.977672 266.243314 266.243314 700.677037 5304.345711 245.066025 245.066025 611.360338 5332.387910 222.131787 222.131787 529.045283 5356.131607 198.374263 198.374263 454.289805 5375.813625 174.625947 174.625947 387.308837 5391.812098 151.558976 151.558976 328.048061 5404.580879 129.661482 129.661482 276.265387 5414.595773 109.240325 109.240325 231.605756 5422.315680 90.439896 90.439896 193.662183 5428.157701 73.268325 73.268325 162.021394 5432.483301 57.625134 57.625134 136.295611 5435.592216 43.326858 43.326858 116.143337 5437.721121 30.129111 30.129111 101.282148 5439.044798 17.744813 17.744813 91.496087 5439.678173 5.858991 5.858991 86.639629 5439.678173 -5.858991 -5.858991 86.639629 5439.044798 -17.744813 -17.744813 91.496087 5437.721121 -30.129111 -30.129111 101.282148 5435.592216 -43.326858 -43.326858 116.143337 5432.483301 -57.625134 -57.625134 136.295611 5428.157701 -73.268325 -73.268325 162.021394 5422.315680 -90.439896 -90.439896 193.662183 5414.595773 -109.240325 -109.240325 231.605756 5404.580879 -129.661482 -129.661482 276.265387 5391.812098 -151.558976 -151.558976 328.048061 5375.813625 -174.625947 -174.625947 387.308837 5356.131607 -198.374263 -198.374263 454.289805 5332.387910 -222.131787 -222.131787 529.045283 5304.345711 -245.066025 -245.066025 611.360338 5271.977672 -266.243314 -266.243314 700.677037 5235.520689 -284.726793 -284.726793 796.049804 5195.497043 -299.705098 -299.705098 896.154112 5152.684158 -310.629306 -310.629306 999.366936 5108.026796 -317.324017 -317.324017 1103.920943 5062.504362 -320.036963 -320.036963 1208.110454 5059.588714 274.993304 274.993304 1209.047630 5103.887570 272.661063 272.661063 1108.167222 5147.435436 267.197125 267.197125 1007.322967 5189.447749 258.394175 258.394175 907.866707 5229.151258 246.345304 246.345304 811.216159 5265.878365 231.418095 231.418095 718.710782 5299.135993 214.186571 214.186571 631.496100 5328.638632 195.341085 195.341085 550.452946 5354.306172 175.597360 175.597360 476.174397 5376.235146 155.620758 155.620758 408.982263 5394.655304 135.973993 135.973993 348.969527 5409.882521 117.089159 117.089159 296.054762 5422.275808 99.260168 99.260168 250.037569 5432.202475 82.649597 82.649597 210.648145 5440.012498 67.304041 67.304041 177.587845 5446.021247 53.173223 53.173223 150.560232 5450.498850 40.129636 40.129636 129.293602 5453.664334 27.986865 27.986865 113.556579 5455.682825 16.515801 16.515801 103.168458 5456.664529 5.458680 5.458680 98.005706 5456.664529 -5.458680 -5.458680 98.005706 5455.682825 -16.515801 -16.515801 103.168458 5453.664334 -27.986865 -27.986865 113.556579 5450.498850 -40.129636 -40.129636 129.293602 5446.021247 -53.173223 -53.173223 150.560232 5440.012498 -67.304041 -67.304041 177.587845 5432.202475 -82.649597 -82.649597 210.648145 5422.275808 -99.260168 -99.260168 250.037569 5409.882521 -117.089159 -117.089159 296.054762 5394.655304 -135.973993 -135.973993 348.969527 5376.235146 -155.620758 -155.620758 408.982263 5354.306172 -175.597360 -175.597360 476.174397 5328.638632 -195.341085 -195.341085 550.452946 5299.135993 -214.186571 -214.186571 631.496100 5265.878365 -231.418095 -231.418095 718.710782 5229.151258 -246.345304 -246.345304 811.216159 5189.447749 -258.394175 -258.394175 907.866707 5147.435436 -267.197125 -267.197125 1007.322967 5103.887570 -272.661063 -272.661063 1108.167222 5059.588714 -274.993304 -274.993304 1209.047630 5057.932008 231.044428 231.044428 1209.948337 5101.257973 229.079685 229.079685 1111.667787 5143.910496 224.670501 224.670501 1013.733236 5185.244372 217.648425 217.648425 917.246472 5224.613344 208.059468 208.059468 823.373216 5261.438690 196.150636 196.150636 733.239632 5295.263082 182.327691 182.327691 647.844707 5325.781766 167.095620 167.095620 568.000483 5352.849606 150.994987 150.994987 494.304175 5376.467856 134.545239 134.545239 427.139168 5396.757473 118.201822 118.201822 366.697476 5413.926242 102.329431 102.329431 313.014884 5428.235626 87.190202 87.190202 266.010862 5439.971232 72.943673 72.943673 225.527478 5449.418751 59.654734 59.654734 191.363860 5456.845704 47.306115 47.306115 163.304682 5462.488445 35.812758 35.812758 141.142486 5466.543399 25.036327 25.036327 124.694398 5469.161493 14.798866 14.798866 113.814104 5470.444819 4.895284 4.895284 108.399957 5470.444819 -4.895284 -4.895284 108.399957 5469.161493 -14.798866 -14.798866 113.814104 5466.543399 -25.036327 -25.036327 124.694398 5462.488445 -35.812758 -35.812758 141.142486 5456.845704 -47.306115 -47.306115 163.304682 5449.418751 -59.654734 -59.654734 191.363860 5439.971232 -72.943673 -72.943673 225.527478 5428.235626 -87.190202 -87.190202 266.010862 5413.926242 -102.329431 -102.329431 313.014884 5396.757473 -118.201822 -118.201822 366.697476 5376.467856 -134.545239 -134.545239 427.139168 5352.849606 -150.994987 -150.994987 494.304175 5325.781766 -167.095620 -167.095620 568.000483 5295.263082 -182.327691 -182.327691 647.844707 5261.438690 -196.150636 -196.150636 733.239632 5224.613344 -208.059468 -208.059468 823.373216 5185.244372 -217.648425 -217.648425 917.246472 5143.910496 -224.670501 -224.670501 1013.733236 5101.257973 -229.079685 -229.079685 1111.667787 5057.932008 -231.044428 -231.044428 1209.948337 5057.097819 187.958906 187.958906 1210.763417 5099.662111 186.354910 186.354910 1114.499633 5141.606059 182.877921 182.877921 1018.818661 5182.384221 177.395380 177.395380 924.644969 5221.443522 169.927122 169.927122 832.963035 5258.274558 160.638480 160.638480 744.740730 5292.454171 149.813883 149.813883 660.861673 5323.673371 137.817560 137.817560 582.075235 5351.748480 125.049547 125.049547 508.968205 5376.616975 111.904414 111.904414 441.957563 5398.321793 98.737936 98.737936 381.300517 5416.988769 85.844194 85.844194 327.116368 5432.801530 73.443194 73.443194 279.414736 5445.977138 61.677491 61.677491 238.125567 5456.744521 50.615529 50.615529 203.127715 5465.326648 40.259364 40.259364 174.274203 5471.926597 30.554747 30.554747 151.413291 5476.717163 21.402109 21.402109 134.405221 5479.833500 12.667506 12.667506 123.134877 5481.368175 4.193079 4.193079 117.520771 5481.368175 -4.193079 -4.193079 117.520771 5479.833500 -12.667506 -12.667506 123.134877 5476.717163 -21.402109 -21.402109 134.405221 5471.926597 -30.554747 -30.554747 151.413291 5465.326648 -40.259364 -40.259364 174.274203 5456.744521 -50.615529 -50.615529 203.127715 5445.977138 -61.677491 -61.677491 238.125567 5432.801530 -73.443194 -73.443194 279.414736 5416.988769 -85.844194 -85.844194 327.116368 5398.321793 -98.737936 -98.737936 381.300517 5376.616975 -111.904414 -111.904414 441.957563 5351.748480 -125.049547 -125.049547 508.968204 5323.673371 -137.817560 -137.817560 582.075235 5292.454171 -149.813883 -149.813883 660.861673 5258.274558 -160.638480 -160.638480 744.740730 5221.443522 -169.927122 -169.927122 832.963035 5182.384221 -177.395380 -177.395380 924.644969 5141.606059 -182.877921 -182.877921 1018.818661 5099.662111 -186.354910 -186.354910 1114.499633 5057.097819 -187.958906 -187.958906 1210.763417 5056.764797 145.540244 145.540244 1211.455585 5098.749664 144.293835 144.293835 1116.715337 5140.150318 141.663725 141.663725 1022.734521 5180.491851 137.550222 137.550222 930.313156 5219.288232 131.959553 131.959553 840.307231 5256.082090 125.000435 125.000435 753.569805 5290.479177 116.867655 116.867655 670.897237 5322.173030 107.816495 107.816495 592.986969 5350.957692 98.133026 98.133026 520.410427 5376.728727 88.105131 88.105131 453.601639 5399.474547 77.997969 77.997969 392.859700 5419.261018 68.035988 68.035988 338.361816 5436.212448 58.392051 58.392051 290.183127 5450.491604 49.183047 49.183047 248.319808 5462.280730 40.470709 40.470709 212.712669 5471.764751 32.266096 32.266096 183.269260 5479.117240 24.536363 24.536363 159.883318 5484.489262 17.212662 17.212662 142.450961 5488.000948 10.198424 10.198424 130.883437 5489.735524 3.377563 3.377563 125.116493 5489.735524 -3.377563 -3.377563 125.116493 5488.000948 -10.198424 -10.198424 130.883437 5484.489262 -17.212662 -17.212662 142.450961 5479.117240 -24.536363 -24.536363 159.883318 5471.764751 -32.266096 -32.266096 183.269260 5462.280730 -40.470709 -40.470709 212.712669 5450.491604 -49.183047 -49.183047 248.319808 5436.212448 -58.392051 -58.392051 290.183127 5419.261018 -68.035988 -68.035988 338.361816 5399.474547 -77.997969 -77.997969 392.859700 5376.728727 -88.105131 -88.105131 453.601639 5350.957692 -98.133026 -98.133026 520.410427 5322.173030 -107.816495 -107.816495 592.986969 5290.479177 -116.867655 -116.867655 670.897237 5256.082090 -125.000435 -125.000435 753.569805 5219.288232 -131.959553 -131.959553 840.307231 5180.491851 -137.550222 -137.550222 930.313156 5140.150318 -141.663725 -141.663725 1022.734521 5098.749664 -144.293835 -144.293835 1116.715337 5056.764797 -145.540244 -145.540244 1211.455585 5056.700071 103.617242 103.617242 1211.997185 5098.266864 102.727177 102.727177 1118.350606 5139.273309 100.885626 100.885626 1025.588956 5179.292566 98.023230 98.023230 934.427899 5217.884854 94.140177 94.140177 845.635728 5254.629762 89.304574 89.304574 759.985850 5289.155163 83.642593 83.642593 678.212292 5321.159236 77.322543 77.322543 600.973137 5350.423590 70.535871 70.535871 528.825030 5376.817149 63.478082 63.478082 462.209807 5400.291803 56.332043 56.332043 401.452514 5420.871754 49.255199 49.255199 346.768805 5438.638783 42.371305 42.371305 298.279070 5453.715600 35.766491 35.766491 256.026580 5466.249044 29.488952 29.488952 219.997259 5476.394410 23.551386 23.551386 190.139179 5484.301697 17.935228 17.935228 166.380468 5490.104180 12.595934 12.595934 148.644766 5493.909421 7.468733 7.468733 136.863789 5495.792695 2.474489 2.474489 130.986774 5495.792695 -2.474489 -2.474489 130.986774 5493.909421 -7.468733 -7.468733 136.863789 5490.104180 -12.595934 -12.595934 148.644766 5484.301697 -17.935228 -17.935228 166.380468 5476.394410 -23.551386 -23.551386 190.139179 5466.249044 -29.488952 -29.488952 219.997259 5453.715600 -35.766491 -35.766491 256.026580 5438.638783 -42.371305 -42.371305 298.279070 5420.871754 -49.255199 -49.255199 346.768805 5400.291803 -56.332043 -56.332043 401.452514 5376.817149 -63.478082 -63.478082 462.209807 5350.423590 -70.535871 -70.535871 528.825030 5321.159236 -77.322543 -77.322543 600.973137 5289.155163 -83.642593 -83.642593 678.212292 5254.629762 -89.304574 -89.304574 759.985850 5217.884854 -94.140177 -94.140177 845.635728 5179.292566 -98.023230 -98.023230 934.427899 5139.273309 -100.885626 -100.885626 1025.588956 5098.266864 -102.727177 -102.727177 1118.350606 5056.700071 -103.617242 -103.617242 1211.997185 5056.741694 62.036573 62.036573 1212.368641 5098.037305 61.502524 61.502524 1119.428990 5138.787082 60.411723 60.411723 1027.454790 5178.594118 58.723295 58.723295 937.109373 5217.047660 56.435819 56.435819 849.106384 5253.750945 53.586627 53.586627 764.169051 5288.346663 50.246553 50.246553 682.991361 5320.537173 46.511238 46.511238 606.205155 5350.097599 42.490550 42.490550 534.355931 5376.881204 38.297775 38.297775 467.888618 5400.817524 34.039941 34.039941 407.143143 5421.904557 29.810216 29.810216 352.358511 5440.196739 25.682794 25.682794 303.683431 5455.790497 21.710242 21.710242 261.191284 5468.809001 17.922992 17.922992 224.897335 5479.387377 14.330498 14.330498 194.776399 5487.659304 10.923545 10.923545 170.779576 5493.745547 7.677263 7.677263 152.849081 5497.744712 4.554503 4.554503 140.930554 5499.726342 1.509351 1.509351 134.982467 5499.726342 -1.509351 -1.509351 134.982467 5497.744712 -4.554503 -4.554503 140.930554 5493.745547 -7.677263 -7.677263 152.849081 5487.659304 -10.923545 -10.923545 170.779576 5479.387377 -14.330498 -14.330498 194.776399 5468.809001 -17.922992 -17.922992 224.897335 5455.790497 -21.710242 -21.710242 261.191284 5440.196739 -25.682794 -25.682794 303.683431 5421.904557 -29.810216 -29.810216 352.358511 5400.817524 -34.039941 -34.039941 407.143143 5376.881204 -38.297775 -38.297775 467.888618 5350.097599 -42.490550 -42.490550 534.355931 5320.537173 -46.511238 -46.511238 606.205155 5288.346663 -50.246553 -50.246553 682.991361 5253.750945 -53.586627 -53.586627 764.169051 5217.047660 -56.435819 -56.435819 849.106384 5178.594118 -58.723295 -58.723295 937.109373 5138.787082 -60.411723 -60.411723 1027.454790 5098.037305 -61.502524 -61.502524 1119.428990 5056.741694 -62.036573 -62.036573 1212.368641 5056.787301 20.656783 20.656783 1212.557426 5097.949518 20.478756 20.478756 1119.964799 5138.572768 20.117442 20.117442 1028.376976 5178.274507 19.559342 19.559342 938.432225 5216.657980 18.803740 18.803740 850.817953 5253.337948 17.862518 17.862518 766.233144 5287.964508 16.758508 16.758508 685.352226 5320.242393 15.522724 15.522724 608.793948 5349.943981 14.190972 14.190972 537.097897 5376.915305 12.800349 12.800349 470.709963 5401.075296 11.386074 11.386074 409.976823 5422.409323 9.978975 9.978975 355.148494 5440.958459 8.603754 8.603754 306.387292 5456.806140 7.278069 7.278069 263.781255 5470.063699 6.012301 6.012301 227.360086 5480.856078 4.809901 4.809901 197.111869 5489.308632 3.668112 3.668112 172.999184 5495.535687 2.578955 2.578955 154.973592 5499.631207 1.530335 1.530335 142.987766 5501.661743 0.507213 0.507213 137.004863 5501.661743 -0.507213 -0.507213 137.004863 5499.631207 -1.530335 -1.530335 142.987766 5495.535687 -2.578955 -2.578955 154.973592 5489.308632 -3.668112 -3.668112 172.999184 5480.856078 -4.809901 -4.809901 197.111869 5470.063699 -6.012301 -6.012301 227.360086 5456.806140 -7.278069 -7.278069 263.781255 5440.958459 -8.603754 -8.603754 306.387292 5422.409323 -9.978975 -9.978975 355.148494 5401.075296 -11.386074 -11.386074 409.976823 5376.915305 -12.800349 -12.800349 470.709963 5349.943981 -14.190972 -14.190972 537.097897 5320.242393 -15.522724 -15.522724 608.793948 5287.964508 -16.758508 -16.758508 685.352226 5253.337948 -17.862518 -17.862518 766.233144 5216.657980 -18.803740 -18.803740 850.817953 5178.274507 -19.559342 -19.559342 938.432225 5138.572768 -20.117442 -20.117442 1028.376976 5097.949518 -20.478756 -20.478756 1119.964799 5056.787301 -20.656783 -20.656783 1212.557426 5056.787301 -20.656783 -20.656783 1212.557426 5097.949518 -20.478756 -20.478756 1119.964799 5138.572768 -20.117442 -20.117442 1028.376976 5178.274507 -19.559342 -19.559342 938.432225 5216.657980 -18.803740 -18.803740 850.817953 5253.337948 -17.862518 -17.862518 766.233144 5287.964508 -16.758508 -16.758508 685.352226 5320.242393 -15.522724 -15.522724 608.793948 5349.943981 -14.190972 -14.190972 537.097897 5376.915305 -12.800349 -12.800349 470.709963 5401.075296 -11.386074 -11.386074 409.976823 5422.409323 -9.978975 -9.978975 355.148494 5440.958459 -8.603754 -8.603754 306.387292 5456.806140 -7.278069 -7.278069 263.781255 5470.063699 -6.012301 -6.012301 227.360086 5480.856078 -4.809901 -4.809901 197.111869 5489.308632 -3.668112 -3.668112 172.999184 5495.535687 -2.578955 -2.578955 154.973592 5499.631207 -1.530335 -1.530335 142.987766 5501.661743 -0.507213 -0.507213 137.004863 5501.661743 0.507213 0.507213 137.004863 5499.631207 1.530335 1.530335 142.987766 5495.535687 2.578955 2.578955 154.973592 5489.308632 3.668112 3.668112 172.999184 5480.856078 4.809901 4.809901 197.111869 5470.063699 6.012301 6.012301 227.360086 5456.806140 7.278069 7.278069 263.781255 5440.958459 8.603754 8.603754 306.387292 5422.409323 9.978975 9.978975 355.148494 5401.075296 11.386074 11.386074 409.976823 5376.915305 12.800349 12.800349 470.709963 5349.943981 14.190972 14.190972 537.097897 5320.242393 15.522724 15.522724 608.793948 5287.964508 16.758508 16.758508 685.352226 5253.337948 17.862518 17.862518 766.233144 5216.657980 18.803740 18.803740 850.817953 5178.274507 19.559342 19.559342 938.432225 5138.572768 20.117442 20.117442 1028.376976 5097.949518 20.478756 20.478756 1119.964799 5056.787301 20.656783 20.656783 1212.557426 5056.741694 -62.036573 -62.036573 1212.368641 5098.037305 -61.502524 -61.502524 1119.428990 5138.787082 -60.411723 -60.411723 1027.454790 5178.594118 -58.723295 -58.723295 937.109373 5217.047660 -56.435819 -56.435819 849.106384 5253.750945 -53.586627 -53.586627 764.169051 5288.346663 -50.246553 -50.246553 682.991361 5320.537173 -46.511238 -46.511238 606.205155 5350.097599 -42.490550 -42.490550 534.355931 5376.881204 -38.297775 -38.297775 467.888618 5400.817524 -34.039941 -34.039941 407.143143 5421.904557 -29.810216 -29.810216 352.358511 5440.196739 -25.682794 -25.682794 303.683431 5455.790497 -21.710242 -21.710242 261.191284 5468.809001 -17.922992 -17.922992 224.897335 5479.387377 -14.330498 -14.330498 194.776399 5487.659304 -10.923545 -10.923545 170.779576 5493.745547 -7.677263 -7.677263 152.849081 5497.744712 -4.554503 -4.554503 140.930554 5499.726342 -1.509351 -1.509351 134.982467 5499.726342 1.509351 1.509351 134.982467 5497.744712 4.554503 4.554503 140.930554 5493.745547 7.677263 7.677263 152.849081 5487.659304 10.923545 10.923545 170.779576 5479.387377 14.330498 14.330498 194.776399 5468.809001 17.922992 17.922992 224.897335 5455.790497 21.710242 21.710242 261.191284 5440.196739 25.682794 25.682794 303.683431 5421.904557 29.810216 29.810216 352.358511 5400.817524 34.039941 34.039941 407.143143 5376.881204 38.297775 38.297775 467.888618 5350.097599 42.490550 42.490550 534.355931 5320.537173 46.511238 46.511238 606.205155 5288.346663 50.246553 50.246553 682.991361 5253.750945 53.586627 53.586627 764.169051 5217.047660 56.435819 56.435819 849.106384 5178.594118 58.723295 58.723295 937.109373 5138.787082 60.411723 60.411723 1027.454790 5098.037305 61.502524 61.502524 1119.428990 5056.741694 62.036573 62.036573 1212.368641 5056.700071 -103.617242 -103.617242 1211.997185 5098.266864 -102.727177 -102.727177 1118.350606 5139.273309 -100.885626 -100.885626 1025.588956 5179.292566 -98.023230 -98.023230 934.427899 5217.884854 -94.140177 -94.140177 845.635728 5254.629762 -89.304574 -89.304574 759.985850 5289.155163 -83.642593 -83.642593 678.212292 5321.159236 -77.322543 -77.322543 600.973137 5350.423590 -70.535871 -70.535871 528.825030 5376.817149 -63.478082 -63.478082 462.209807 5400.291803 -56.332043 -56.332043 401.452514 5420.871754 -49.255199 -49.255199 346.768805 5438.638783 -42.371305 -42.371305 298.279070 5453.715600 -35.766491 -35.766491 256.026580 5466.249044 -29.488952 -29.488952 219.997259 5476.394410 -23.551386 -23.551386 190.139179 5484.301697 -17.935228 -17.935228 166.380468 5490.104180 -12.595934 -12.595934 148.644766 5493.909421 -7.468733 -7.468733 136.863789 5495.792695 -2.474489 -2.474489 130.986774 5495.792695 2.474489 2.474489 130.986774 5493.909421 7.468733 7.468733 136.863789 5490.104180 12.595934 12.595934 148.644766 5484.301697 17.935228 17.935228 166.380468 5476.394410 23.551386 23.551386 190.139179 5466.249044 29.488952 29.488952 219.997259 5453.715600 35.766491 35.766491 256.026580 5438.638783 42.371305 42.371305 298.279070 5420.871754 49.255199 49.255199 346.768805 5400.291803 56.332043 56.332043 401.452514 5376.817149 63.478082 63.478082 462.209807 5350.423590 70.535871 70.535871 528.825030 5321.159236 77.322543 77.322543 600.973137 5289.155163 83.642593 83.642593 678.212292 5254.629762 89.304574 89.304574 759.985850 5217.884854 94.140177 94.140177 845.635728 5179.292566 98.023230 98.023230 934.427899 5139.273309 100.885626 100.885626 1025.588956 5098.266864 102.727177 102.727177 1118.350606 5056.700071 103.617242 103.617242 1211.997185 5056.764797 -145.540244 -145.540244 1211.455585 5098.749664 -144.293835 -144.293835 1116.715337 5140.150318 -141.663725 -141.663725 1022.734521 5180.491851 -137.550222 -137.550222 930.313156 5219.288232 -131.959553 -131.959553 840.307231 5256.082090 -125.000435 -125.000435 753.569805 5290.479177 -116.867655 -116.867655 670.897237 5322.173030 -107.816495 -107.816495 592.986969 5350.957692 -98.133026 -98.133026 520.410427 5376.728727 -88.105131 -88.105131 453.601639 5399.474547 -77.997969 -77.997969 392.859700 5419.261018 -68.035988 -68.035988 338.361816 5436.212448 -58.392051 -58.392051 290.183127 5450.491604 -49.183047 -49.183047 248.319808 5462.280730 -40.470709 -40.470709 212.712669 5471.764751 -32.266096 -32.266096 183.269260 5479.117240 -24.536363 -24.536363 159.883318 5484.489262 -17.212662 -17.212662 142.450961 5488.000948 -10.198424 -10.198424 130.883437 5489.735524 -3.377563 -3.377563 125.116493 5489.735524 3.377563 3.377563 125.116493 5488.000948 10.198424 10.198424 130.883437 5484.489262 17.212662 17.212662 142.450961 5479.117240 24.536363 24.536363 159.883318 5471.764751 32.266096 32.266096 183.269260 5462.280730 40.470709 40.470709 212.712669 5450.491604 49.183047 49.183047 248.319808 5436.212448 58.392051 58.392051 290.183127 5419.261018 68.035988 68.035988 338.361816 5399.474547 77.997969 77.997969 392.859700 5376.728727 88.105131 88.105131 453.601639 5350.957692 98.133026 98.133026 520.410427 5322.173030 107.816495 107.816495 592.986969 5290.479177 116.867655 116.867655 670.897237 5256.082090 125.000435 125.000435 753.569805 5219.288232 131.959553 131.959553 840.307231 5180.491851 137.550222 137.550222 930.313156 5140.150318 141.663725 141.663725 1022.734521 5098.749664 144.293835 144.293835 1116.715337 5056.764797 145.540244 145.540244 1211.455585 5057.097819 -187.958906 -187.958906 1210.763417 5099.662111 -186.354910 -186.354910 1114.499633 5141.606059 -182.877921 -182.877921 1018.818661 5182.384221 -177.395380 -177.395380 924.644969 5221.443522 -169.927122 -169.927122 832.963035 5258.274558 -160.638480 -160.638480 744.740730 5292.454171 -149.813883 -149.813883 660.861673 5323.673371 -137.817560 -137.817560 582.075235 5351.748480 -125.049547 -125.049547 508.968205 5376.616975 -111.904414 -111.904414 441.957563 5398.321793 -98.737936 -98.737936 381.300517 5416.988769 -85.844194 -85.844194 327.116368 5432.801530 -73.443194 -73.443194 279.414736 5445.977138 -61.677491 -61.677491 238.125567 5456.744521 -50.615529 -50.615529 203.127715 5465.326648 -40.259364 -40.259364 174.274203 5471.926597 -30.554747 -30.554747 151.413291 5476.717163 -21.402109 -21.402109 134.405221 5479.833500 -12.667506 -12.667506 123.134877 5481.368175 -4.193079 -4.193079 117.520771 5481.368175 4.193079 4.193079 117.520771 5479.833500 12.667506 12.667506 123.134877 5476.717163 21.402109 21.402109 134.405221 5471.926597 30.554747 30.554747 151.413291 5465.326648 40.259364 40.259364 174.274203 5456.744521 50.615529 50.615529 203.127715 5445.977138 61.677491 61.677491 238.125567 5432.801530 73.443194 73.443194 279.414736 5416.988769 85.844194 85.844194 327.116368 5398.321793 98.737936 98.737936 381.300517 5376.616975 111.904414 111.904414 441.957563 5351.748480 125.049547 125.049547 508.968204 5323.673371 137.817560 137.817560 582.075235 5292.454171 149.813883 149.813883 660.861673 5258.274558 160.638480 160.638480 744.740730 5221.443522 169.927122 169.927122 832.963035 5182.384221 177.395380 177.395380 924.644969 5141.606059 182.877921 182.877921 1018.818661 5099.662111 186.354910 186.354910 1114.499633 5057.097819 187.958906 187.958906 1210.763417 5057.932008 -231.044428 -231.044428 1209.948337 5101.257973 -229.079685 -229.079685 1111.667787 5143.910496 -224.670501 -224.670501 1013.733236 5185.244372 -217.648425 -217.648425 917.246472 5224.613344 -208.059468 -208.059468 823.373216 5261.438690 -196.150636 -196.150636 733.239632 5295.263082 -182.327691 -182.327691 647.844707 5325.781766 -167.095620 -167.095620 568.000483 5352.849606 -150.994987 -150.994987 494.304175 5376.467856 -134.545239 -134.545239 427.139168 5396.757473 -118.201822 -118.201822 366.697476 5413.926242 -102.329431 -102.329431 313.014884 5428.235626 -87.190202 -87.190202 266.010862 5439.971232 -72.943673 -72.943673 225.527478 5449.418751 -59.654734 -59.654734 191.363860 5456.845704 -47.306115 -47.306115 163.304682 5462.488445 -35.812758 -35.812758 141.142486 5466.543399 -25.036327 -25.036327 124.694398 5469.161493 -14.798866 -14.798866 113.814104 5470.444819 -4.895284 -4.895284 108.399957 5470.444819 4.895284 4.895284 108.399957 5469.161493 14.798866 14.798866 113.814104 5466.543399 25.036327 25.036327 124.694398 5462.488445 35.812758 35.812758 141.142486 5456.845704 47.306115 47.306115 163.304682 5449.418751 59.654734 59.654734 191.363860 5439.971232 72.943673 72.943673 225.527478 5428.235626 87.190202 87.190202 266.010862 5413.926242 102.329431 102.329431 313.014884 5396.757473 118.201822 118.201822 366.697476 5376.467856 134.545239 134.545239 427.139168 5352.849606 150.994987 150.994987 494.304175 5325.781766 167.095620 167.095620 568.000483 5295.263082 182.327691 182.327691 647.844707 5261.438690 196.150636 196.150636 733.239632 5224.613344 208.059468 208.059468 823.373216 5185.244372 217.648425 217.648425 917.246472 5143.910496 224.670501 224.670501 1013.733236 5101.257973 229.079685 229.079685 1111.667787 5057.932008 231.044428 231.044428 1209.948337 5059.588714 -274.993304 -274.993304 1209.047630 5103.887570 -272.661063 -272.661063 1108.167222 5147.435436 -267.197125 -267.197125 1007.322967 5189.447749 -258.394175 -258.394175 907.866707 5229.151258 -246.345304 -246.345304 811.216159 5265.878365 -231.418095 -231.418095 718.710782 5299.135993 -214.186571 -214.186571 631.496100 5328.638632 -195.341085 -195.341085 550.452946 5354.306172 -175.597360 -175.597360 476.174397 5376.235146 -155.620758 -155.620758 408.982263 5394.655304 -135.973993 -135.973993 348.969527 5409.882521 -117.089159 -117.089159 296.054762 5422.275808 -99.260168 -99.260168 250.037569 5432.202475 -82.649597 -82.649597 210.648145 5440.012498 -67.304041 -67.304041 177.587845 5446.021247 -53.173223 -53.173223 150.560232 5450.498850 -40.129636 -40.129636 129.293602 5453.664334 -27.986865 -27.986865 113.556579 5455.682825 -16.515801 -16.515801 103.168458 5456.664529 -5.458680 -5.458680 98.005706 5456.664529 5.458680 5.458680 98.005706 5455.682825 16.515801 16.515801 103.168458 5453.664334 27.986865 27.986865 113.556579 5450.498850 40.129636 40.129636 129.293602 5446.021247 53.173223 53.173223 150.560232 5440.012498 67.304041 67.304041 177.587845 5432.202475 82.649597 82.649597 210.648145 5422.275808 99.260168 99.260168 250.037569 5409.882521 117.089159 117.089159 296.054762 5394.655304 135.973993 135.973993 348.969527 5376.235146 155.620758 155.620758 408.982263 5354.306172 175.597360 175.597360 476.174397 5328.638632 195.341085 195.341085 550.452946 5299.135993 214.186571 214.186571 631.496100 5265.878365 231.418095 231.418095 718.710782 5229.151258 246.345304 246.345304 811.216159 5189.447749 258.394175 258.394175 907.866707 5147.435436 267.197125 267.197125 1007.322967 5103.887570 272.661063 272.661063 1108.167222 5059.588714 274.993304 274.993304 1209.047630 5062.504362 -320.036963 -320.036963 1208.110454 5108.026796 -317.324017 -317.324017 1103.920943 5152.684158 -310.629306 -310.629306 999.366936 5195.497043 -299.705098 -299.705098 896.154112 5235.520689 -284.726793 -284.726793 796.049804 5271.977672 -266.243314 -266.243314 700.677037 5304.345711 -245.066025 -245.066025 611.360338 5332.387910 -222.131787 -222.131787 529.045283 5356.131607 -198.374263 -198.374263 454.289805 5375.813625 -174.625947 -174.625947 387.308837 5391.812098 -151.558976 -151.558976 328.048061 5404.580879 -129.661482 -129.661482 276.265387 5414.595773 -109.240325 -109.240325 231.605756 5422.315680 -90.439896 -90.439896 193.662183 5428.157701 -73.268325 -73.268325 162.021394 5432.483301 -57.625134 -57.625134 136.295611 5435.592216 -43.326858 -43.326858 116.143337 5437.721121 -30.129111 -30.129111 101.282148 5439.044798 -17.744813 -17.744813 91.496087 5439.678173 -5.858991 -5.858991 86.639629 5439.678173 5.858991 5.858991 86.639629 5439.044798 17.744813 17.744813 91.496087 5437.721121 30.129111 30.129111 101.282148 5435.592216 43.326858 43.326858 116.143337 5432.483301 57.625134 57.625134 136.295611 5428.157701 73.268325 73.268325 162.021394 5422.315680 90.439896 90.439896 193.662183 5414.595773 109.240325 109.240325 231.605756 5404.580879 129.661482 129.661482 276.265387 5391.812098 151.558976 151.558976 328.048061 5375.813625 174.625947 174.625947 387.308837 5356.131607 198.374263 198.374263 454.289805 5332.387910 222.131787 222.131787 529.045283 5304.345711 245.066025 245.066025 611.360338 5271.977672 266.243314 266.243314 700.677037 5235.520689 284.726793 284.726793 796.049804 5195.497043 299.705098 299.705098 896.154112 5152.684158 310.629306 310.629306 999.366936 5108.026796 317.324017 317.324017 1103.920943 5062.504362 320.036963 320.036963 1208.110454 5067.270854 -366.454749 -366.454749 1207.201010 5114.321095 -363.336421 -363.336421 1098.815268 5160.335612 -355.155319 -355.155319 989.549426 5204.060047 -341.626433 -341.626433 881.616146 5244.319105 -323.068021 -323.068021 777.270129 5280.206530 -300.306373 -300.306373 678.507213 5311.194250 -274.491617 -274.491617 586.859268 5337.148059 -246.888708 -246.888708 503.311811 5358.269401 -218.698041 -218.698041 428.329214 5374.998217 -190.934771 -190.934771 361.948782 5387.909814 -164.370368 -164.370368 303.902103 5397.627319 -139.523691 -139.523691 253.732531 5404.758540 -116.683368 -116.683368 210.892000 5409.856933 -95.945116 -95.945116 174.812175 5413.401776 -77.252496 -77.252496 144.952019 5415.791547 -60.434543 -60.434543 120.826875 5417.345174 -45.237395 -45.237395 102.024539 5418.307157 -31.349346 -31.349346 88.212970 5418.853861 -18.419993 -18.419993 79.143153 5419.099276 -6.074642 -6.074642 74.649526 5419.099276 6.074642 6.074642 74.649526 5418.853861 18.419993 18.419993 79.143153 5418.307157 31.349346 31.349346 88.212970 5417.345174 45.237395 45.237395 102.024539 5415.791547 60.434543 60.434543 120.826875 5413.401776 77.252496 77.252496 144.952019 5409.856933 95.945116 95.945116 174.812175 5404.758540 116.683368 116.683368 210.892000 5397.627319 139.523691 139.523691 253.732531 5387.909814 164.370368 164.370368 303.902103 5374.998217 190.934771 190.934771 361.948782 5358.269401 218.698041 218.698041 428.329214 5337.148059 246.888708 246.888708 503.311811 5311.194250 274.491617 274.491617 586.859268 5280.206530 300.306373 300.306373 678.507213 5244.319105 323.068021 323.068021 777.270129 5204.060047 341.626433 341.626433 881.616146 5160.335612 355.155319 355.155319 989.549426 5114.321095 363.336421 363.336421 1098.815268 5067.270854 366.454749 366.454749 1207.201010 5074.698004 -414.592063 -414.592063 1206.402992 5123.653176 -411.023092 -411.023092 1092.679312 5171.311030 -400.977071 -400.977071 977.413008 5216.023281 -384.147134 -384.147134 863.557226 5256.306684 -361.100943 -361.100943 754.051773 5291.118027 -333.095985 -333.095985 651.375162 5319.980804 -301.769160 -301.769160 557.277410 5342.959377 -268.817665 -268.817665 472.718913 5360.531288 -235.755945 -235.755945 397.967627 5373.423525 -203.780046 -203.780046 332.776982 5382.463721 -173.727505 -173.727505 276.576193 5388.471007 -146.100971 -146.100971 228.631656 5392.189885 -121.123266 -121.123266 188.164565 5394.258921 -98.800521 -98.800521 154.426690 5395.202876 -78.980297 -78.980297 126.743612 5395.438283 -61.399251 -61.399251 104.535740 5395.285205 -45.719480 -45.719480 87.325712 5394.980578 -31.554816 -31.554816 74.738400 5394.690495 -18.489138 -18.489138 66.497623 5394.520037 -6.088812 -6.088812 62.422097 5394.520037 6.088812 6.088812 62.422097 5394.690495 18.489138 18.489138 66.497623 5394.980578 31.554816 31.554816 74.738400 5395.285205 45.719480 45.719480 87.325712 5395.438283 61.399251 61.399251 104.535740 5395.202876 78.980297 78.980297 126.743612 5394.258921 98.800521 98.800521 154.426690 5392.189885 121.123266 121.123266 188.164565 5388.471007 146.100971 146.100971 228.631656 5382.463721 173.727505 173.727505 276.576193 5373.423525 203.780046 203.780046 332.776982 5360.531288 235.755945 235.755945 397.967627 5342.959377 268.817664 268.817664 472.718913 5319.980804 301.769160 301.769160 557.277410 5291.118027 333.095985 333.095985 651.375162 5256.306684 361.100943 361.100943 754.051773 5216.023281 384.147134 384.147134 863.557226 5171.311030 400.977071 400.977071 977.413008 5123.653176 411.023092 411.023092 1092.679312 5074.698004 414.592063 414.592063 1206.402992 5085.912645 -464.886699 -464.886699 1205.825698 5137.250004 -460.783962 -460.783962 1085.249392 5186.875962 -448.297203 -448.297203 962.280945 5232.567177 -427.143176 -427.143176 840.982064 5272.434908 -398.331311 -398.331311 725.264323 5305.324094 -363.799692 -363.799692 618.213164 5330.933650 -325.884219 -325.884219 521.759605 5349.691275 -286.835885 -286.835885 436.698853 5362.500171 -248.510113 -248.510113 362.930649 5370.477686 -212.243649 -212.243649 299.772957 5374.755292 -178.867772 -178.867772 246.244366 5376.358262 -148.791814 -148.791814 201.270607 5376.151656 -122.106259 -122.106259 163.813272 5374.830071 -98.677388 -98.677388 132.938265 5372.931012 -78.222684 -78.222684 107.844579 5370.858118 -60.365946 -60.365946 87.870140 5368.906128 -44.675114 -44.675114 72.486112 5367.283453 -30.686831 -30.686831 61.286697 5366.130566 -17.921521 -17.921521 53.978417 5365.533675 -5.891999 -5.891999 50.371015 5365.533675 5.891999 5.891999 50.371015 5366.130566 17.921521 17.921521 53.978417 5367.283453 30.686831 30.686831 61.286697 5368.906128 44.675114 44.675114 72.486112 5370.858118 60.365946 60.365946 87.870140 5372.931012 78.222684 78.222684 107.844579 5374.830071 98.677388 98.677388 132.938265 5376.151656 122.106259 122.106259 163.813272 5376.358262 148.791814 148.791814 201.270607 5374.755292 178.867772 178.867772 246.244366 5370.477686 212.243649 212.243649 299.772957 5362.500171 248.510113 248.510113 362.930649 5349.691275 286.835885 286.835885 436.698853 5330.933650 325.884219 325.884219 521.759605 5305.324094 363.799692 363.799692 618.213164 5272.434908 398.331311 398.331311 725.264323 5232.567177 427.143176 427.143176 840.982064 5186.875962 448.297203 448.297203 962.280945 5137.250004 460.783962 460.783962 1085.249392 5085.912645 464.886699 464.886699 1205.825698 5102.521691 -517.908573 -517.908573 1205.612102 5156.857303 -513.116836 -513.116836 1076.104479 5208.799962 -497.283093 -497.283093 943.124673 5255.268227 -470.265720 -470.265720 812.443195 5293.860651 -433.872759 -433.872759 689.358258 5323.420300 -391.129574 -391.129574 577.670626 5344.073989 -345.362308 -345.362308 479.341995 5356.884207 -299.488638 -299.488638 394.728339 5363.383645 -255.670356 -255.670356 323.090331 5365.186416 -215.271641 -215.271641 263.110698 5363.752349 -178.986819 -178.986819 213.281699 5360.285744 -147.018716 -147.018716 172.139457 5355.721284 -119.242146 -119.242146 138.379470 5350.753175 -95.329289 -95.329289 110.897408 5345.879605 -74.836597 -74.836597 88.790043 5341.447740 -57.260825 -57.260825 71.338245 5337.692798 -42.072834 -42.072834 57.984376 5334.769255 -28.736340 -28.736340 48.310290 5332.774234 -16.716931 -16.716931 42.018770 5331.763924 -5.484988 -5.484988 38.919444 5331.763924 5.484988 5.484988 38.919444 5332.774234 16.716931 16.716931 42.018770 5334.769255 28.736340 28.736340 48.310290 5337.692798 42.072834 42.072834 57.984376 5341.447740 57.260825 57.260825 71.338245 5345.879605 74.836597 74.836597 88.790043 5350.753175 95.329289 95.329289 110.897408 5355.721284 119.242146 119.242146 138.379470 5360.285744 147.018716 147.018716 172.139457 5363.752349 178.986819 178.986819 213.281699 5365.186416 215.271641 215.271641 263.110698 5363.383645 255.670356 255.670356 323.090331 5356.884207 299.488638 299.488638 394.728339 5344.073989 345.362308 345.362308 479.341995 5323.420300 391.129574 391.129574 577.670626 5293.860651 433.872759 433.872759 689.358258 5255.268227 470.265720 470.265720 812.443195 5208.799962 497.283093 497.283093 943.124673 5156.857303 513.116836 513.116836 1076.104479 5102.521691 517.908573 517.908573 1205.612102 5126.892057 -574.422753 -574.422753 1205.948047 5185.037107 -568.642464 -568.642464 1064.543222 5239.609804 -547.975551 -547.975551 918.328925 5286.228271 -512.716177 -512.716177 775.799506 5321.903251 -466.151144 -466.151144 644.221966 5345.798578 -413.051140 -413.051140 528.110740 5358.954909 -358.089326 -358.089326 429.058912 5363.491794 -304.877635 -304.877635 346.486103 5361.806056 -255.708133 -255.708133 278.620511 5356.070958 -211.738932 -211.738932 223.282895 5348.027259 -173.323420 -173.323420 178.349300 5338.964979 -140.313499 -140.313499 141.960242 5329.788079 -112.279853 -112.279853 112.578664 5321.101569 -88.654120 -88.654120 88.976382 5313.293057 -68.813224 -68.813224 70.193473 5306.599355 -52.125509 -52.125509 55.492742 5301.157141 -37.973193 -37.973193 44.318622 5297.039758 -25.760748 -25.760748 36.263667 5294.282943 -14.915201 -14.915201 31.043046 5292.901948 -4.881929 -4.881929 28.476422 5292.901948 4.881929 4.881929 28.476422 5294.282943 14.915201 14.915201 31.043046 5297.039758 25.760748 25.760748 36.263667 5301.157141 37.973193 37.973193 44.318622 5306.599355 52.125509 52.125509 55.492742 5313.293057 68.813224 68.813224 70.193473 5321.101569 88.654120 88.654120 88.976382 5329.788079 112.279853 112.279853 112.578664 5338.964979 140.313499 140.313499 141.960242 5348.027259 173.323420 173.323420 178.349300 5356.070958 211.738932 211.738932 223.282895 5361.806056 255.708133 255.708133 278.620511 5363.491794 304.877635 304.877635 346.486103 5358.954909 358.089326 358.089326 429.058912 5345.798578 413.051140 413.051140 528.110740 5321.903251 466.151144 466.151144 644.221966 5286.228271 512.716177 512.716177 775.799506 5239.609804 547.975551 547.975551 918.328925 5185.037107 568.642464 568.642464 1064.543222 5126.892057 574.422753 574.422753 1205.948047 5162.662211 -635.492707 -635.492707 1207.070248 5225.692481 -628.120794 -628.120794 1049.334070 5283.004098 -600.060412 -600.060412 885.261228 5328.191694 -552.781867 -552.781867 727.837810 5357.839331 -492.378702 -492.378702 587.044989 5372.215455 -426.383438 -426.383438 467.727400 5374.187729 -361.124957 -361.124957 370.206490 5367.486537 -300.658963 -300.658963 292.135201 5355.544290 -246.965083 -246.965083 230.223985 5341.002373 -200.598506 -200.598506 181.251147 5325.698298 -161.307109 -161.307109 142.477473 5310.819172 -128.443814 -128.443814 111.721542 5297.081408 -101.207379 -101.207379 87.303947 5284.882724 -78.769015 -78.769015 67.954487 5274.416218 -60.332043 -60.332043 52.722432 5265.750940 -45.154751 -45.154751 40.902239 5258.886875 -32.554086 -32.554086 31.976377 5253.791599 -21.899918 -21.899918 25.573180 5250.424148 -12.604991 -12.604991 21.436873 5248.750045 -4.113128 -4.113128 19.407274 5248.750045 4.113128 4.113128 19.407274 5250.424148 12.604991 12.604991 21.436873 5253.791599 21.899918 21.899918 25.573180 5258.886875 32.554086 32.554086 31.976377 5265.750940 45.154751 45.154751 40.902239 5274.416218 60.332043 60.332043 52.722432 5284.882724 78.769015 78.769015 67.954487 5297.081408 101.207379 101.207379 87.303947 5310.819172 128.443814 128.443814 111.721542 5325.698298 161.307109 161.307109 142.477473 5341.002373 200.598506 200.598506 181.251147 5355.544290 246.965083 246.965083 230.223985 5367.486537 300.658963 300.658963 292.135201 5374.187729 361.124957 361.124957 370.206490 5372.215455 426.383438 426.383438 467.727400 5357.839331 492.378702 492.378702 587.044989 5328.191694 552.781867 552.781867 727.837810 5283.004098 600.060412 600.060412 885.261228 5225.692481 628.120794 628.120794 1049.334070 5162.662211 635.492707 635.492707 1207.070248 5215.721304 -702.672598 -702.672598 1209.245653 5285.094962 -692.403635 -692.403635 1028.179810 5344.470372 -652.284383 -652.284383 839.446067 5384.540389 -586.857687 -586.857687 663.727278 5402.215591 -507.635276 -507.635276 514.322160 5400.886630 -426.298984 -426.298984 394.982183 5386.632065 -350.629256 -350.629256 302.887552 5365.335529 -284.238942 -284.238942 232.770040 5341.258521 -227.935439 -227.935439 179.411719 5317.108530 -181.152433 -181.152433 138.587323 5294.438193 -142.778959 -142.778959 107.114611 5274.041799 -111.577975 -111.577975 82.674160 5256.248487 -86.368337 -86.368337 63.594808 5241.118839 -66.089670 -66.089670 48.675775 5228.570228 -49.813217 -49.813217 37.053669 5218.454712 -36.730099 -36.730099 28.107748 5210.606633 -26.131695 -26.131695 21.393880 5204.871323 -17.388539 -17.388539 16.599197 5201.122141 -9.930235 -9.930235 13.511463 5199.270324 -3.227043 -3.227043 11.999084 5199.270324 3.227043 3.227043 11.999084 5201.122141 9.930235 9.930235 13.511463 5204.871323 17.388539 17.388539 16.599197 5210.606633 26.131695 26.131695 21.393880 5218.454712 36.730099 36.730099 28.107748 5228.570228 49.813217 49.813217 37.053669 5241.118839 66.089670 66.089670 48.675775 5256.248487 86.368337 86.368337 63.594808 5274.041799 111.577975 111.577975 82.674160 5294.438193 142.778959 142.778959 107.114611 5317.108530 181.152433 181.152433 138.587323 5341.258521 227.935439 227.935439 179.411719 5365.335529 284.238942 284.238942 232.770040 5386.632065 350.629256 350.629256 302.887552 5400.886630 426.298984 426.298984 394.982183 5402.215591 507.635276 507.635276 514.322160 5384.540389 586.857687 586.857687 663.727278 5344.470372 652.284383 652.284383 839.446067 5285.094962 692.403635 692.403635 1028.179810 5215.721304 702.672598 702.672598 1209.245653 5296.414757 -778.308689 -778.308689 1212.718346 5373.720199 -762.156903 -762.156903 996.423310 5432.403451 -700.891289 -700.891289 772.997288 5458.362260 -607.315641 -607.315641 576.375811 5453.118501 -503.457178 -503.457178 422.501130 5426.613962 -405.953605 -405.953605 309.724790 5390.262363 -322.261463 -322.261463 228.990347 5351.478122 -253.364265 -253.364265 170.968824 5314.357689 -197.803064 -197.803064 128.746737 5280.832633 -153.458026 -153.458026 97.530193 5251.609768 -118.271793 -118.271793 74.091884 5226.749045 -90.467388 -90.467388 56.258725 5205.996822 -68.575779 -68.575779 42.556223 5188.969961 -51.398753 -51.398753 31.972460 5175.255296 -37.957140 -37.957140 23.805455 5164.462081 -27.441751 -27.441751 17.564497 5156.248747 -19.171899 -19.171899 12.906133 5150.335855 -12.561648 -12.561648 9.592488 5146.511847 -7.092505 -7.092505 7.464224 5144.635237 -2.290925 -2.290925 6.423404 5144.635237 2.290925 2.290925 6.423404 5146.511847 7.092505 7.092505 7.464224 5150.335855 12.561648 12.561648 9.592488 5156.248747 19.171899 19.171899 12.906133 5164.462081 27.441751 27.441751 17.564497 5175.255296 37.957140 37.957140 23.805455 5188.969961 51.398753 51.398753 31.972460 5205.996822 68.575779 68.575779 42.556223 5226.749045 90.467388 90.467388 56.258725 5251.609768 118.271793 118.271793 74.091884 5280.832633 153.458026 153.458026 97.530193 5314.357689 197.803064 197.803064 128.746737 5351.478122 253.364265 253.364265 170.968824 5390.262363 322.261463 322.261463 228.990347 5426.613962 405.953605 405.953605 309.724790 5453.118501 503.457178 503.457178 422.501130 5458.362260 607.315641 607.315641 576.375811 5432.403451 700.891289 700.891289 772.997288 5373.720199 762.156903 762.156903 996.423310 5296.414757 778.308689 778.308689 1212.718346 5424.070298 -866.578482 -866.578482 1216.931167 5511.773895 -836.354200 -836.354200 943.922220 5557.514181 -735.048787 -735.048787 671.432422 5549.816503 -598.297281 -598.297281 456.842043 5500.969159 -466.099492 -466.099492 310.369503 5438.064426 -357.492277 -357.492277 215.715187 5375.104094 -272.580363 -272.580363 153.350921 5318.196167 -207.288333 -207.288333 111.209627 5269.236702 -157.231882 -157.231882 81.858217 5228.268298 -118.816322 -118.816322 60.848701 5194.584891 -89.293333 -89.293333 45.448780 5167.246530 -66.601770 -66.601770 33.941800 5145.304776 -49.191640 -49.191640 25.220478 5127.896018 -35.882317 -35.882317 18.553902 5114.274493 -25.757592 -25.757592 13.450035 5103.818854 -18.090090 -18.090090 9.572905 5096.027972 -12.286946 -12.286946 6.691622 5090.513278 -7.850278 -7.850278 4.648504 5086.990981 -4.347720 -4.347720 3.339026 5085.275628 -1.389611 -1.389611 2.699406 5085.275628 1.389611 1.389611 2.699406 5086.990981 4.347720 4.347720 3.339026 5090.513278 7.850278 7.850278 4.648504 5096.027972 12.286946 12.286946 6.691622 5103.818854 18.090090 18.090090 9.572905 5114.274493 25.757592 25.757592 13.450035 5127.896018 35.882317 35.882317 18.553902 5145.304776 49.191640 49.191640 25.220478 5167.246530 66.601770 66.601770 33.941800 5194.584891 89.293333 89.293333 45.448780 5228.268298 118.816322 118.816322 60.848701 5269.236702 157.231882 157.231882 81.858217 5318.196167 207.288333 207.288333 111.209627 5375.104094 272.580363 272.580363 153.350921 5438.064426 357.492277 357.492277 215.715187 5500.969159 466.099492 466.099492 310.369503 5549.816503 598.297281 598.297281 456.842043 5557.514181 735.048787 735.048787 671.432422 5511.773895 836.354200 836.354200 943.922220 5424.070298 866.578482 866.578482 1216.931167 5645.714886 -972.911568 -972.911568 1220.272852 5731.063968 -906.261879 -906.261879 844.825898 5736.112845 -723.966588 -723.966588 510.195071 5637.182354 -526.615452 -526.615452 298.857155 5521.233988 -380.124654 -380.124654 187.330544 5415.581961 -275.925666 -275.925666 123.091792 5327.485906 -201.846726 -201.846726 84.381350 5256.473172 -148.382103 -148.382103 59.598876 5200.143769 -109.215903 -109.215903 42.989971 5155.856706 -80.185265 -80.185265 31.414441 5121.261096 -58.507068 -58.507068 23.091936 5094.398787 -42.272104 -42.272104 16.960176 5073.682328 -30.133273 -30.133273 12.360795 5057.840637 -21.111980 -21.111980 8.871909 5045.864326 -14.475903 -14.475903 6.215958 5036.959505 -9.659924 -9.659924 4.206758 5030.511429 -6.213611 -6.213611 2.718112 5026.057021 -3.765242 -3.765242 1.664739 5023.264827 -1.996252 -1.996252 0.990547 5021.921110 -0.622215 -0.622215 0.661496 5021.921110 0.622215 0.622215 0.661496 5023.264827 1.996252 1.996252 0.990547 5026.057021 3.765242 3.765242 1.664739 5030.511429 6.213611 6.213611 2.718112 5036.959505 9.659924 9.659924 4.206758 5045.864326 14.475903 14.475903 6.215958 5057.840637 21.111980 21.111980 8.871909 5073.682328 30.133273 30.133273 12.360795 5094.398787 42.272104 42.272104 16.960176 5121.261096 58.507068 58.507068 23.091936 5155.856706 80.185265 80.185265 31.414441 5200.143769 109.215903 109.215903 42.989971 5256.473172 148.382103 148.382103 59.598876 5327.485906 201.846726 201.846726 84.381350 5415.581961 275.925666 275.925666 123.091792 5521.233988 380.124654 380.124654 187.330544 5637.182354 526.615452 526.615452 298.857155 5736.112845 723.966588 723.966588 510.195071 5731.063968 906.261879 906.261879 844.825898 5645.714886 972.911568 972.911568 1220.272852 6058.367550 -1124.105717 -1124.105717 1193.680316 6155.100659 -917.034995 -917.034995 632.257209 5895.409723 -562.478951 -562.478951 255.359648 5655.996808 -360.715737 -360.715737 135.168242 5470.806996 -241.070845 -241.070845 77.219752 5334.035178 -166.507190 -166.507190 48.726444 5233.086317 -117.308092 -117.308092 32.433772 5158.312226 -83.485302 -83.485302 22.465406 5102.733980 -59.544472 -59.544472 15.951296 5061.391740 -42.273646 -42.273646 11.492914 5030.704376 -29.682494 -29.682494 8.326227 5008.041267 -20.476058 -20.476058 6.013051 4991.437297 -13.774751 -13.774751 4.288347 4979.405216 -8.957438 -8.957438 2.985572 4970.810280 -5.569168 -5.569168 1.996733 4964.785424 -3.264594 -3.264594 1.250200 4960.673176 -1.771905 -1.771905 0.697840 4957.985707 -0.868914 -0.868914 0.307340 4956.377538 -0.366536 -0.366536 0.057547 4955.627451 -0.096752 -0.096752 -0.064332 4955.627451 0.096752 0.096752 -0.064332 4956.377538 0.366536 0.366536 0.057547 4957.985707 0.868914 0.868914 0.307340 4960.673176 1.771905 1.771905 0.697840 4964.785424 3.264594 3.264594 1.250200 4970.810280 5.569168 5.569168 1.996733 4979.405216 8.957438 8.957438 2.985572 4991.437297 13.774751 13.774751 4.288347 5008.041267 20.476058 20.476058 6.013051 5030.704376 29.682494 29.682494 8.326227 5061.391740 42.273646 42.273646 11.492914 5102.733980 59.544472 59.544472 15.951296 5158.312226 83.485302 83.485302 22.465406 5233.086317 117.308092 117.308092 32.433772 5334.035178 166.507190 166.507190 48.726444 5470.806996 241.070845 241.070845 77.219752 5655.996808 360.715737 360.715737 135.168242 5895.409723 562.478951 562.478951 255.359648 6155.100659 917.034995 917.034995 632.257209 6058.367550 1124.105717 1124.105717 1193.680316 7457.794043 -1213.275457 -1213.275457 1090.629367 6376.754415 -417.583930 -417.583930 118.596147 5823.890399 -204.199363 -204.199363 66.395620 5504.693632 -118.182366 -118.182366 24.485917 5305.541363 -75.346775 -75.346775 14.343898 5173.521897 -50.360822 -50.360822 8.586115 5083.116524 -34.468142 -34.468142 5.661389 5020.107095 -23.788441 -23.788441 3.868377 4975.932829 -16.363305 -16.363305 2.719557 4945.063999 -11.096347 -11.096347 1.937874 4923.746170 -7.327235 -7.327235 1.385551 4909.328092 -4.634196 -4.634196 0.983182 4899.881337 -2.734336 -2.734336 0.683659 4893.972639 -1.429592 -1.429592 0.457584 4890.521957 -0.575708 -0.575708 0.286033 4888.710993 -0.063565 -0.063565 0.156514 4887.922808 0.192564 0.192564 0.060664 4887.701389 0.262709 0.262709 -0.007116 4887.724581 0.206475 0.206475 -0.050483 4887.786413 0.076849 0.076849 -0.071646 4887.786413 -0.076849 -0.076849 -0.071646 4887.724581 -0.206475 -0.206475 -0.050483 4887.701389 -0.262709 -0.262709 -0.007116 4887.922808 -0.192564 -0.192564 0.060664 4888.710993 0.063565 0.063565 0.156514 4890.521957 0.575708 0.575708 0.286033 4893.972639 1.429592 1.429592 0.457584 4899.881337 2.734336 2.734336 0.683659 4909.328092 4.634196 4.634196 0.983182 4923.746170 7.327235 7.327235 1.385551 4945.063999 11.096347 11.096347 1.937874 4975.932829 16.363305 16.363305 2.719557 5020.107095 23.788441 23.788441 3.868377 5083.116524 34.468142 34.468142 5.661389 5173.521897 50.360822 50.360822 8.586115 5305.541363 75.346775 75.346775 14.343898 5504.693632 118.182366 118.182366 24.485917 5823.890399 204.199363 204.199363 66.395620 6376.754415 417.583930 417.583930 118.596147 7457.794043 1213.275457 1213.275457 1090.629367 
</DataArray>
<DataArray type="Float64" Name="energy" NumberOfComponents="1" format="ascii">
38.500259 27.343763 22.713801 20.322741 18.882216 17.957971 17.337821 16.912071 16.616750 16.411964 16.271327 16.176601 16.114735 16.076148 16.053682 16.041945 16.036883 16.035509 16.035711 16.036141 16.036141 16.035711 16.035509 16.036883 16.041945 16.053682 16.076148 16.114735 16.176601 16.271327 16.411964 16.616750 16.912071 17.337821 17.957971 18.882216 20.322741 22.713801 27.343763 38.500259 25.344839 25.860497 23.401656 21.446464 20.049497 19.059131 18.349214 17.833981 17.456786 17.179407 16.975342 16.825704 16.716712 16.638128 16.582245 16.543237 16.516717 16.499448 16.489145 16.484350 16.484350 16.489145 16.499448 16.516717 16.543237 16.582245 16.638128 16.716712 16.825704 16.975342 17.179407 17.456786 17.833981 18.349214 19.059131 20.049497 21.446464 23.401656 25.860497 25.344839 21.688784 22.299816 22.168177 21.291885 20.380545 19.600054 18.973012 18.480581 18.097346 17.800401 17.571079 17.394655 17.259629 17.157038 17.079904 17.022824 16.981658 16.953314 16.935591 16.927075 16.927075 16.935591 16.953314 16.981658 17.022824 17.079904 17.157038 17.259629 17.394655 17.571079 17.800401 18.097346 18.480581 18.973012 19.600054 20.380545 21.291885 22.168177 22.299816 21.688784 19.794774 20.427855 20.696018 20.567430 20.168883 19.701873 19.256517 18.866154 18.537600 18.267176 18.047696 17.871406 17.731119 17.620605 17.534648 17.468998 17.420280 17.385907 17.364005 17.353353 17.353353 17.364005 17.385907 17.420280 17.468998 17.534648 17.620605 17.731119 17.871406 18.047696 18.267176 18.537600 18.866154 19.256517 19.701873 20.168883 20.567430 20.696018 20.427855 19.794774 18.681794 19.232926 19.629855 19.787634 19.733346 19.543665 19.297627 19.042886 18.803986 18.591484 18.408448 18.254229 18.126516 18.022419 17.939034 17.873710 17.824185 17.788633 17.765688 17.754442 17.754442 17.765688 17.788633 17.824185 17.873710 17.939034 18.022419 18.126516 18.254229 18.408448 18.591484 18.803986 19.042886 19.297627 19.543665 19.733346 19.787634 19.629855 19.232926 18.681794 17.956164 18.442923 18.857320 19.137911 19.268104 19.273851 19.196697 19.075214 18.936446 18.797116 18.666574 18.549468 18.447627 18.361296 18.289892 18.232474 18.188019 18.155585 18.134408 18.123956 18.123956 18.134408 18.155585 18.188019 18.232474 18.289892 18.361296 18.447627 18.549468 18.666574 18.797116 18.936446 19.075214 19.196697 19.273851 19.268104 19.137911 18.857320 18.442923 17.956164 17.456642 17.893153 18.297234 18.624802 18.852530 18.981520 19.029773 19.020769 18.976045 18.912113 18.840455 18.768525 18.700883 18.640134 18.587630 18.543950 18.509238 18.483415 18.466326 18.457824 18.457824 18.466326 18.483415 18.509238 18.543950 18.587630 18.640134 18.700883 18.768525 18.840455 18.912113 18.976045 19.020769 19.029773 18.981520 18.852530 18.624802 18.297234 17.893153 17.456642 17.099723 17.498386 17.884547 18.227332 18.504766 18.708867 18.844073 18.922242 18.957507 18.963012 18.949474 18.924987 18.895353 18.864572 18.835319 18.809324 18.787676 18.771031 18.759771 18.754097 18.754097 18.759771 18.771031 18.787676 18.809324 18.835319 18.864572 18.895353 18.924987 18.949474 18.963012 18.957507 18.922242 18.844073 18.708867 18.504766 18.227332 17.884547 17.498386 17.099723 16.838387 17.208239 17.576277 17.920428 18.222296 18.471183 18.664794 18.807335 18.906669 18.971803 19.011281 19.032410 19.041052 19.041712 19.037749 19.031604 19.025013 19.019176 19.014888 19.012631 19.012631 19.014888 19.019176 19.025013 19.031604 19.037749 19.041712 19.041052 19.032410 19.011281 18.971803 18.906669 18.807335 18.664794 18.471183 18.222296 17.920428 17.576277 17.208239 16.838387 16.643852 16.991545 17.343382 17.683197 17.996071 18.271258 18.503425 18.692252 18.841041 18.955113 19.040477 19.102954 19.147713 19.179091 19.200585 19.214934 19.224217 19.229962 19.233236 19.234710 19.234710 19.233236 19.229962 19.224217 19.214934 19.200585 19.179091 19.147713 19.102954 19.040477 18.955113 18.841041 18.692252 18.503425 18.271258 17.996071 17.683197 17.343382 16.991545 16.643852 16.497484 16.827952 17.165997 17.499444 17.816252 18.106565 18.363933 18.585536 18.771640 18.924684 19.048344 19.146767 19.224055 19.283955 19.329710 19.364017 19.389034 19.406418 19.417364 19.422647 19.422647 19.417364 19.406418 19.389034 19.364017 19.329710 19.283955 19.224055 19.146767 19.048344 18.924684 18.771640 18.585536 18.363933 18.106565 17.816252 17.499444 17.165997 16.827952 16.497484 16.386666 16.703639 17.030209 17.356939 17.674032 17.972753 18.246464 18.491069 18.704921 18.888369 19.043164 19.171883 19.277456 19.362832 19.430757 19.483654 19.523553 19.552077 19.570429 19.579407 19.579407 19.570429 19.552077 19.523553 19.483654 19.430757 19.362832 19.277456 19.171883 19.043164 18.888369 18.704921 18.491069 18.246464 17.972753 17.674032 17.356939 17.030209 16.703639 16.386666 16.302564 16.608915 16.926063 17.246487 17.562090 17.865205 18.149422 18.410072 18.644354 18.851168 19.030780 19.184419 19.313905 19.421334 19.508839 19.578430 19.631876 19.670645 19.695860 19.708277 19.708277 19.695860 19.670645 19.631876 19.578430 19.508839 19.421334 19.313905 19.184419 19.030780 18.851168 18.644354 18.410072 18.149422 17.865205 17.562090 17.246487 16.926063 16.608915 16.302564 16.238828 16.536816 16.846317 17.161162 17.474533 17.779683 18.070578 18.342359 18.591562 18.816114 19.015177 19.188894 19.338112 19.464114 19.568402 19.652511 19.717879 19.765746 19.797094 19.812596 19.812596 19.797094 19.765746 19.717879 19.652511 19.568402 19.464114 19.338112 19.188894 19.015177 18.816114 18.591562 18.342359 18.070578 17.779683 17.474533 17.161162 16.846317 16.536816 16.238828 16.190816 16.482255 16.785629 17.095735 17.406708 17.712548 18.007623 18.287078 18.547084 18.784935 18.998996 19.188566 19.353685 19.494924 19.613187 19.709538 19.785061 19.840739 19.877382 19.895556 19.895556 19.877382 19.840739 19.785061 19.709538 19.613187 19.494924 19.353685 19.188566 18.998996 18.784935 18.547084 18.287078 18.007623 17.712548 17.406708 17.095735 16.785629 16.482255 16.190816 16.155102 16.441482 16.740041 17.046264 17.354992 17.660808 17.958445 18.243137 18.510872 18.758536 18.983935 19.185735 19.363335 19.516711 19.646248 19.752581 19.836454 19.898598 19.939644 19.960047 19.960047 19.939644 19.898598 19.836454 19.752581 19.646248 19.516711 19.363335 19.185735 18.983935 18.758536 18.510872 18.243137 17.958445 17.660808 17.354992 17.046264 16.740041 16.441482 16.155102 16.129162 16.411736 16.706625 17.009802 17.316613 17.622084 17.921248 18.209451 18.482601 18.737328 18.971057 19.181991 19.369047 19.531731 19.670004 19.784138 19.874583 19.941844 19.986387 20.008564 20.008564 19.986387 19.941844 19.874583 19.784138 19.670004 19.531731 19.369047 19.181991 18.971057 18.737328 18.482601 18.209451 17.921248 17.622084 17.316613 17.009802 16.706625 16.411736 16.129162 16.111164 16.391016 16.683257 16.984188 17.289508 17.594556 17.894593 18.185068 18.461861 18.721448 18.961000 19.178407 19.372238 19.541653 19.686296 19.806156 19.901451 19.972503 20.019646 20.043145 20.043145 20.019646 19.972503 19.901451 19.806156 19.686296 19.541653 19.372238 19.178407 18.961000 18.721448 18.461861 18.185068 17.894593 17.594556 17.289508 16.984188 16.683257 16.391016 16.111164 16.099833 16.377930 16.668453 16.967908 17.272213 17.576911 17.877410 18.169240 18.448272 18.710898 18.954136 19.175678 19.373871 19.547652 19.696448 19.820060 19.918545 19.992100 20.040962 20.065335 20.065335 20.040962 19.992100 19.918545 19.820060 19.696448 19.547652 19.373871 19.175678 18.954136 18.710898 18.448272 18.169240 17.877410 17.576911 17.272213 16.967908 16.668453 16.377930 16.099833 16.094363 16.371601 16.661279 16.960001 17.263794 17.568297 17.868994 18.161455 18.441553 18.705639 18.950661 19.174218 19.374546 19.550471 19.701315 19.826782 19.926849 20.001645 20.051362 20.076170 20.076170 20.051362 20.001645 19.926849 19.826782 19.701315 19.550471 19.374546 19.174218 18.950661 18.705639 18.441553 18.161455 17.868994 17.568297 17.263794 16.960001 16.661279 16.371601 16.094363 16.094363 16.371601 16.661279 16.960001 17.263794 17.568297 17.868994 18.161455 18.441553 18.705639 18.950661 19.174218 19.374546 19.550471 19.701315 19.826782 19.926849 20.001645 20.051362 20.076170 20.076170 20.051362 20.001645 19.926849 19.826782 19.701315 19.550471 19.374546 19.174218 18.950661 18.705639 18.441553 18.161455 17.868994 17.568297 17.263794 16.960001 16.661279 16.371601 16.094363 16.099833 16.377930 16.668453 16.967908 17.272213 17.576911 17.877410 18.169240 18.448272 18.710898 18.954136 19.175678 19.373871 19.547652 19.696448 19.820060 19.918545 19.992100 20.040962 20.065335 20.065335 20.040962 19.992100 19.918545 19.820060 19.696448 19.547652 19.373871 19.175678 18.954136 18.710898 18.448272 18.169240 17.877410 17.576911 17.272213 16.967908 16.668453 16.377930 16.099833 16.111164 16.391016 16.683257 16.984188 17.289508 17.594556 17.894593 18.185068 18.461861 18.721448 18.961000 19.178407 19.372238 19.541653 19.686296 19.806156 19.901451 19.972503 20.019646 20.043145 20.043145 20.019646 19.972503 19.901451 19.806156 19.686296 19.541653 19.372238 19.178407 18.961000 18.721448 18.461861 18.185068 17.894593 17.594556 17.289508 16.984188 16.683257 16.391016 16.111164 16.129162 16.411736 16.706625 17.009802 17.316613 17.622084 17.921248 18.209451 18.482601 18.737328 18.971057 19.181991 19.369047 19.531731 19.670004 19.784138 19.874583 19.941844 19.986387 20.008564 20.008564 19.986387 19.941844 19.874583 19.784138 19.670004 19.531731 19.369047 19.181991 18.971057 18.737328 18.482601 18.209451 17.921248 17.622084 17.316613 17.009802 16.706625 16.411736 16.129162 16.155102 16.441482 16.740041 17.046264 17.354992 17.660808 17.958445 18.243137 18.510872 18.758536 18.983935 19.185735 19.363335 19.516711 19.646248 19.752581 19.836454 19.898598 19.939644 19.960047 19.960047 19.939644 19.898598 19.836454 19.752581 19.646248 19.516711 19.363335 19.185735 18.983935 18.758536 18.510872 18.243137 17.958445 17.660808 17.354992 17.046264 16.740041 16.441482 16.155102 16.190816 16.482255 16.785629 17.095735 17.406708 17.712548 18.007623 18.287078 18.547084 18.784935 18.998996 19.188566 19.353685 19.494924 19.613187 19.709538 19.785061 19.840739 19.877382 19.895556 19.895556 19.877382 19.840739 19.785061 19.709538 19.613187 19.494924 19.353685 19.188566 18.998996 18.784935 18.547084 18.287078 18.007623 17.712548 17.406708 17.095735 16.785629 16.482255 16.190816 16.238828 16.536816 16.846317 17.161162 17.474533 17.779683 18.070578 18.342359 18.591562 18.816114 19.015177 19.188894 19.338112 19.464114 19.568402 19.652511 19.717879 19.765746 19.797094 19.812596 19.812596 19.797094 19.765746 19.717879 19.652511 19.568402 19.464114 19.338112 19.188894 19.015177 18.816114 18.591562 18.342359 18.070578 17.779683 17.474533 17.161162 16.846317 16.536816 16.238828 16.302564 16.608915 16.926063 17.246487 17.562090 17.865205 18.149422 18.410072 18.644354 18.851168 19.030780 19.184419 19.313905 19.421334 19.508839 19.578430 19.631876 19.670645 19.695860 19.708277 19.708277 19.695860 19.670645 19.631876 19.578430 19.508839 19.421334 19.313905 19.184419 19.030780 18.851168 18.644354 18.410072 18.149422 17.865205 17.562090 17.246487 16.926063 16.608915 16.302564 16.386666 16.703639 17.030209 17.356939 17.674032 17.972753 18.246464 18.491069 18.704921 18.888369 19.043164 19.171883 19.277456 19.362832 19.430757 19.483654 19.523553 19.552077 19.570429 19.579407 19.579407 19.570429 19.552077 19.523553 19.483654 19.430757 19.362832 19.277456 19.171883 19.043164 18.888369 18.704921 18.491069 18.246464 17.972753 17.674032 17.356939 17.030209 16.703639 16.386666 16.497484 16.827952 17.165997 17.499444 17.816252 18.106565 18.363933 18.585536 18.771640 18.924684 19.048344 19.146767 19.224055 19.283955 19.329710 19.364017 19.389034 19.406418 19.417364 19.422647 19.422647 19.417364 19.406418 19.389034 19.364017 19.329710 19.283955 19.224055 19.146767 19.048344 18.924684 18.771640 18.585536 18.363933 18.106565 17.816252 17.499444 17.165997 16.827952 16.497484 16.643852 16.991545 17.343382 17.683197 17.996071 18.271258 18.503425 18.692252 18.841041 18.955113 19.040477 19.102954 19.147713 19.179091 19.200585 19.214934 19.224217 19.229962 19.233236 19.234710 19.234710 19.233236 19.229962 19.224217 19.214934 19.200585 19.179091 19.147713 19.102954 19.040477 18.955113 18.841041 18.692252 18.503425 18.271258 17.996071 17.683197 17.343382 16.991545 16.643852 16.838387 17.208239 17.576277 17.920428 18.222296 18.471183 18.664794 18.807335 18.906669 18.971803 19.011281 19.032410 19.041052 19.041712 19.037749 19.031604 19.025013 19.019176 19.014888 19.012631 19.012631 19.014888 19.019176 19.025013 19.031604 19.037749 19.041712 19.041052 19.032410 19.011281 18.971803 18.906669 18.807335 18.664794 18.471183 18.222296 17.920428 17.576277 17.208239 16.838387 17.099723 17.498386 17.884547 18.227332 18.504766 18.708867 18.844073 18.922242 18.957507 18.963012 18.949474 18.924987 18.895353 18.864572 18.835319 18.809324 18.787676 18.771031 18.759771 18.754097 18.754097 18.759771 18.771031 18.787676 18.809324 18.835319 18.864572 18.895353 18.924987 18.949474 18.963012 18.957507 18.922242 18.844073 18.708867 18.504766 18.227332 17.884547 17.498386 17.099723 17.456642 17.893153 18.297234 18.624802 18.852530 18.981520 19.029773 19.020769 18.976045 18.912113 18.840455 18.768525 18.700883 18.640134 18.587630 18.543950 18.509238 18.483415 18.466326 18.457824 18.457824 18.466326 18.483415 18.509238 18.543950 18.587630 18.640134 18.700883 18.768525 18.840455 18.912113 18.976045 19.020769 19.029773 18.981520 18.852530 18.624802 18.297234 17.893153 17.456642 17.956164 18.442923 18.857320 19.137911 19.268104 19.273851 19.196697 19.075214 18.936446 18.797116 18.666574 18.549468 18.447627 18.361296 18.289892 18.232474 18.188019 18.155585 18.134408 18.123956 18.123956 18.134408 18.155585 18.188019 18.232474 18.289892 18.361296 18.447627 18.549468 18.666574 18.797116 18.936446 19.075214 19.196697 19.273851 19.268104 19.137911 18.857320 18.442923 17.956164 18.681794 19.232926 19.629855 19.787634 19.733346 19.543665 19.297627 19.042886 18.803986 18.591484 18.408448 18.254229 18.126516 18.022419 17.939034 17.873710 17.824185 17.788633 17.765688 17.754442 17.754442 17.765688 17.788633 17.824185 17.873710 17.939034 18.022419 18.126516 18.254229 18.408448 18.591484 18.803986 19.042886 19.297627 19.543665 19.733346 19.787634 19.629855 19.232926 18.681794 19.794774 20.427855 20.696018 20.567430 20.168883 19.701873 19.256517 18.866154 18.537600 18.267176 18.047696 17.871406 17.731119 17.620605 17.534648 17.468998 17.420280 17.385907 17.364005 17.353353 17.353353 17.364005 17.385907 17.420280 17.468998 17.534648 17.620605 17.731119 17.871406 18.047696 18.267176 18.537600 18.866154 19.256517 19.701873 20.168883 20.567430 20.696018 20.427855 19.794774 21.688784 22.299816 22.168177 21.291885 20.380545 19.600054 18.973012 18.480581 18.097346 17.800401 17.571079 17.394655 17.259629 17.157038 17.079904 17.022824 16.981658 16.953314 16.935591 16.927075 16.927075 16.935591 16.953314 16.981658 17.022824 17.079904 17.157038 17.259629 17.394655 17.571079 17.800401 18.097346 18.480581 18.973012 19.600054 20.380545 21.291885 22.168177 22.299816 21.688784 25.344839 25.860497 23.401656 21.446464 20.049497 19.059131 18.349214 17.833981 17.456786 17.179407 16.975342 16.825704 16.716712 16.638128 16.582245 16.543237 16.516717 16.499448 16.489145 16.484350 16.484350 16.489145 16.499448 16.516717 16.543237 16.582245 16.638128 16.716712 16.825704 16.975342 17.179407 17.456786 17.833981 18.349214 19.059131 20.049497 21.446464 23.401656 25.860497 25.344839 38.500259 27.343763 22.713801 20.322741 18.882216 17.957971 17.337821 16.912071 16.616750 16.411964 16.271327 16.176601 16.114735 16.076148 16.053682 16.041945 16.036883 16.035509 16.035711 16.036141 16.036141 16.035711 16.035509 16.036883 16.041945 16.053682 16.076148 16.114735 16.176601 16.271327 16.411964 16.616750 16.912071 17.337821 17.957971 18.882216 20.322741 22.713801 27.343763 38.500259 
</DataArray>
<DataArray type="Float64" Name="energy_interp" NumberOfComponents="1" format="ascii">
18.581877 18.581877 18.581877 18.581877 18.581877 18.581877 18.581877 18.581877 18.581877 18.581877 18.581877 18.581877 18.581877 18.581877 18.581877 18.581877 18.581877 18.581877 18.581877 18.581877 18.581877 18.581877 18.581877 18.581877 18.581877 18.581877 18.581877 18.581877 18.581877 18.581877 18.581877 18.581877 18.581877 18.581877 18.581877 18.581877 18.581877 18.581877 18.581877 18.581877 18.581877 18.581877 18.581877 18.581877 18.581877 18.581877 18.581877 18.581877 18.581877 18.581877 18.581877 18.581877 18.581877 18.581877 18.581877 18.581877 18.581877 18.581877 18.581877 18.581877 18.581877 18.581877 18.581877 18.581877 18.581877 18.581877 18.581877 18.581877 18.581877 18.581877 18.581877 18.581877 18.581877 18.581877 18.581877 18.581877 18.581877 18.581877 18.581877 18.581877 18.581877 18.581877 18.581877 18.581877 18.581877 18.581877 18.581877 18.581877 18.581877 18.581877 18.581877 18.581877 18.581877 18.581877 18.581877 18.581877 18.581877 18.581877 18.581877 18.581877 18.581877 18.581877 18.581877 18.581877 18.581877 18.581877 18.581877 18.581877 18.581877 18.581877 18.581877 18.581877 18.581877 18.581877 18.581877 18.581877 18.581877 18.581877 18.581877 18.581877 18.581877 18.581877 18.581877 18.581877 18.581877 18.581877 18.581877 18.581877 18.581877 18.581877 18.581877 18.581877 18.581877 18.581877 18.581877 18.581877 18.581877 18.581877 18.581877 18.581877 18.581877 18.581877 18.581877 18.581877 18.581877 18.581877 18.581877 18.581877 18.581877 18.581877 18.581877 18.581877 18.581877 18.581877 18.581877 18.581877 18.581877 18.581877 18.581877 18.581877 18.581877 18.581877 18.581877 18.581877 18.581877 18.581877 18.581877 18.581877 18.581877 18.581877 18.581877 18.581877 18.581877 18.581877 18.581877 18.581877 18.581877 18.581877 18.581877 18.581877 18.581877 18.581877 18.581877 18.581877 18.581877 18.581877 18.581877 18.581877 18.581877 18.581877 18.581877 18.581877 18.581877 18.581877 18.581877 18.581877 18.581877 18.581877 18.581877 18.581877 18.581877 18.581877 18.581877 18.581877 18.581877 18.581877 18.581877 18.581877 18.581877 18.581877 18.581877 18.581877 18.581877 18.581877 18.581877 18.581877 18.581877 18.581877 18.581877 18.581877 18.581877 18.581877 18.581877 18.581877 18.581877 18.581877 18.581877 18.581877 18.581877 18.581877 18.581877 18.581877 18.581877 18.581877 18.581877 18.581877 18.581877 18.581877 18.581877 18.581877 18.581877 18.581877 18.581877 18.581877 18.581877 18.581877 18.581877 18.581877 18.581877 18.581877 18.581877 18.581877 18.581877 18.581877 18.581877 18.581877 18.581877 18.581877 18.581877 18.581877 18.581877 18.581877 18.581877 18.581877 18.581877 18.581877 18.581877 18.581877 18.581877 18.581877 18.581877 18.581877 18.581877 18.581877 18.581877 18.581877 18.581877 18.581877 18.581877 18.581877 18.581877 18.581877 18.581877 18.581877 18.581877 18.581877 18.581877 18.581877 18.581877 18.581877 18.581877 18.581877 18.581877 18.581877 18.581877 18.581877 18.581877 18.581877 18.581877 18.581877 18.581877 18.581877 18.581877 18.581877 18.581877 18.581877 18.581877 18.581877 18.581877 18.581877 18.581877 18.581877 18.581877 18.581877 18.581877 18.581877 18.581877 18.581877 18.581877 18.581877 18.581877 18.581877 18.581877 18.581877 18.581877 18.581877 18.581877 18.581877 18.581877 18.581877 18.581877 18.581877 18.581877 18.581877 18.581877 18.581877 18.581877 18.581877 18.581877 18.581877 18.581877 18.581877 18.581877 18.581877 18.581877 18.581877 18.581877 18.581877 18.581877 18.581877 18.581877 18.581877 18.581877 18.581877 18.581877 18.581877 18.581877 18.581877 18.581877 18.581877 18.581877 18.581877 18.581877 18.581877 18.581877 18.581877 18.581877 18.581877 18.581877 18.581877 18.581877 18.581877 18.581877 18.581877 18.581877 18.581877 18.581877 18.581877 18.581877 18.581877 18.581877 18.581877 18.581877 18.581877 18.581877 18.581877 18.581877 18.581877 18.581877 18.581877 18.581877 18.581877 18.581877 18.581877 18.581877 18.581877 18.581877 18.581877 18.581877 18.581877 18.581877 18.581877 18.581877 18.581877 18.581877 18.581877 18.581877 18.581877 18.581877 18.581877 18.581877 18.581877 18.581877 18.581877 18.581877 18.581877 18.581877 18.581877 18.581877 18.581877 18.581877 18.581877 18.581877 18.581877 18.581877 18.581877 18.581877 18.581877 18.581877 18.581877 18.581877 18.581877 18.581877 18.581877 18.581877 18.581877 18.581877 18.581877 18.581877 18.581877 18.581877 18.581877 18.581877 18.581877 18.581877 18.581877 18.581877 18.581877 18.581877 18.581877 18.581877 18.581877 18.581877 18.581877 18.581877 18.581877 18.581877 18.581877 18.581877 18.581877 18.581877 18.581877 18.581877 18.581877 18.581877 18.581877 18.581877 18.581877 18.581877 18.581877 18.581877 18.581877 18.581877 18.581877 18.581877 18.581877 18.581877 18.581877 18.581877 18.581877 18.581877 18.581877 18.581877 18.581877 18.581877 18.581877 18.581877 18.581877 18.581877 18.581877 18.581877 18.581877 18.581877 18.581877 18.581877 18.581877 18.581877 18.581877 18.581877 18.581877 18.581877 18.581877 18.581877 18.581877 18.581877 18.581877 18.581877 18.581877 18.581877 18.581877 18.581877 18.581877 18.581877 18.581877 18.581877 18.581877 18.581877 18.581877 18.581877 18.581877 18.581877 18.581877 18.581877 18.581877 18.581877 18.581877 18.581877 18.581877 18.581877 18.581877 18.581877 18.581877 18.581877 18.581877 18.581877 18.581877 18.581877 18.581877 18.581877 18.581877 18.581877 18.581877 18.581877 18.581877 18.581877 18.581877 18.581877 18.581877 18.581877 18.581877 18.581877 18.581877 18.581877 18.581877 18.581877 18.581877 18.581877 18.581877 18.581877 18.581877 18.581877 18.581877 18.581877 18.581877 18.581877 18.581877 18.581877 18.581877 18.581877 18.581877 18.581877 18.581877 18.581877 18.581877 18.581877 18.581877 18.581877 18.581877 18.581877 18.581877 18.581877 18.581877 18.581877 18.581877 18.581877 18.581877 18.581877 18.581877 18.581877 18.581877 18.581877 18.581877 18.581877 18.581877 18.581877 18.581877 18.581877 18.581877 18.581877 18.581877 18.581877 18.581877 18.581877 18.581877 18.581877 18.581877 18.581877 18.581877 18.581877 18.581877 18.581877 18.581877 18.581877 18.581877 18.581877 18.581877 18.581877 18.581877 18.581877 18.581877 18.581877 18.581877 18.581877 18.581877 18.581877 18.581877 18.581877 18.581877 18.581877 18.581877 18.581877 18.581877 18.581877 18.581877 18.581877 18.581877 18.581877 18.581877 18.581877 18.581877 18.581877 18.581877 18.581877 18.581877 18.581877 18.581877 18.581877 18.581877 18.581877 18.581877 18.581877 18.581877 18.581877 18.581877 18.581877 18.581877 18.581877 18.581877 18.581877 18.581877 18.581877 18.581877 18.581877 18.581877 18.581877 18.581877 18.581877 18.581877 18.581877 18.581877 18.581877 18.581877 18.581877 18.581877 18.581877 18.581877 18.581877 18.581877 18.581877 18.581877 18.581877 18.581877 18.581877 18.581877 18.581877 18.581877 18.581877 18.581877 18.581877 18.581877 18.581877 18.581877 18.581877 18.581877 18.581877 18.581877 18.581877 18.581877 18.581877 18.581877 18.581877 18.581877 18.581877 18.581877 18.581877 18.581877 18.581877 18.581877 18.581877 18.581877 18.581877 18.581877 18.581877 18.581877 18.581877 18.581877 18.581877 18.581877 18.581877 18.581877 18.581877 18.581877 18.581877 18.581877 18.581877 18.581877 18.581877 18.581877 18.581877 18.581877 18.581877 18.581877 18.581877 18.581877 18.581877 18.581877 18.581877 18.581877 18.581877 18.581877 18.581877 18.581877 18.581877 18.581877 18.581877 18.581877 18.581877 18.581877 18.581877 18.581877 18.581877 18.581877 18.581877 18.581877 18.581877 18.581877 18.581877 18.581877 18.581877 18.581877 18.581877 18.581877 18.581877 18.581877 18.581877 18.581877 18.581877 18.581877 18.581877 18.581877 18.581877 18.581877 18.581877 18.581877 18.581877 18.581877 18.581877 18.581877 18.581877 18.581877 18.581877 18.581877 18.581877 18.581877 18.581877 18.581877 18.581877 18.581877 18.581877 18.581877 18.581877 18.581877 18.581877 18.581877 18.581877 18.581877 18.581877 18.581877 18.581877 18.581877 18.581877 18.581877 18.581877 18.581877 18.581877 18.581877 18.581877 18.581877 18.581877 18.581877 18.581877 18.581877 18.581877 18.581877 18.581877 18.581877 18.581877 18.581877 18.581877 18.581877 18.581877 18.581877 18.581877 18.581877 18.581877 18.581877 18.581877 18.581877 18.581877 18.581877 18.581877 18.581877 18.581877 18.581877 18.581877 18.581877 18.581877 18.581877 18.581877 18.581877 18.581877 18.581877 18.581877 18.581877 18.581877 18.581877 18.581877 18.581877 18.581877 18.581877 18.581877 18.581877 18.581877 18.581877 18.581877 18.581877 18.581877 18.581877 18.581877 18.581877 18.581877 18.581877 18.581877 18.581877 18.581877 18.581877 18.581877 18.581877 18.581877 18.581877 18.581877 18.581877 18.581877 18.581877 18.581877 18.581877 18.581877 18.581877 18.581877 18.581877 18.581877 18.581877 18.581877 18.581877 18.581877 18.581877 18.581877 18.581877 18.581877 18.581877 18.581877 18.581877 18.581877 18.581877 18.581877 18.581877 18.581877 18.581877 18.581877 18.581877 18.581877 18.581877 18.581877 18.581877 18.581877 18.581877 18.581877 18.581877 18.581877 18.581877 18.581877 18.581877 18.581877 18.581877 18.581877 18.581877 18.581877 18.581877 18.581877 18.581877 18.581877 18.581877 18.581877 18.581877 18.581877 18.581877 18.581877 18.581877 18.581877 18.581877 18.581877 18.581877 18.581877 18.581877 18.581877 18.581877 18.581877 18.581877 18.581877 18.581877 18.581877 18.581877 18.581877 18.581877 18.581877 18.581877 18.581877 18.581877 18.581877 18.581877 18.581877 18.581877 18.581877 18.581877 18.581877 18.581877 18.581877 18.581877 18.581877 18.581877 18.581877 18.581877 18.581877 18.581877 18.581877 18.581877 18.581877 18.581877 18.581877 18.581877 18.581877 18.581877 18.581877 18.581877 18.581877 18.581877 18.581877 18.581877 18.581877 18.581877 18.581877 18.581877 18.581877 18.581877 18.581877 18.581877 18.581877 18.581877 18.581877 18.581877 18.581877 18.581877 18.581877 18.581877 18.581877 18.581877 18.581877 18.581877 18.581877 18.581877 18.581877 18.581877 18.581877 18.581877 18.581877 18.581877 18.581877 18.581877 18.581877 18.581877 18.581877 18.581877 18.581877 18.581877 18.581877 18.581877 18.581877 18.581877 18.581877 18.581877 18.581877 18.581877 18.581877 18.581877 18.581877 18.581877 18.581877 18.581877 18.581877 18.581877 18.581877 18.581877 18.581877 18.581877 18.581877 18.581877 18.581877 18.581877 18.581877 18.581877 18.581877 18.581877 18.581877 18.581877 18.581877 18.581877 18.581877 18.581877 18.581877 18.581877 18.581877 18.581877 18.581877 18.581877 18.581877 18.581877 18.581877 18.581877 18.581877 18.581877 18.581877 18.581877 18.581877 18.581877 18.581877 18.581877 18.581877 18.581877 18.581877 18.581877 18.581877 18.581877 18.581877 18.581877 18.581877 18.581877 18.581877 18.581877 18.581877 18.581877 18.581877 18.581877 18.581877 18.581877 18.581877 18.581877 18.581877 18.581877 18.581877 18.581877 18.581877 18.581877 18.581877 18.581877 18.581877 18.581877 18.581877 18.581877 18.581877 18.581877 18.581877 18.581877 18.581877 18.581877 18.581877 18.581877 18.581877 18.581877 18.581877 18.581877 18.581877 18.581877 18.581877 18.581877 18.581877 18.581877 18.581877 18.581877 18.581877 18.581877 18.581877 18.581877 18.581877 18.581877 18.581877 18.581877 18.581877 18.581877 18.581877 18.581877 18.581877 18.581877 18.581877 18.581877 18.581877 18.581877 18.581877 18.581877 18.581877 18.581877 18.581877 18.581877 18.581877 18.581877 18.581877 18.581877 18.581877 18.581877 18.581877 18.581877 18.581877 18.581877 18.581877 18.581877 18.581877 18.581877 18.581877 18.581877 18.581877 18.581877 18.581877 18.581877 18.581877 18.581877 18.581877 18.581877 18.581877 18.581877 18.581877 18.581877 18.581877 18.581877 18.581877 18.581877 18.581877 18.581877 18.581877 18.581877 18.581877 18.581877 18.581877 18.581877 18.581877 18.581877 18.581877 18.581877 18.581877 18.581877 18.581877 18.581877 18.581877 18.581877 18.581877 18.581877 18.581877 18.581877 18.581877 18.581877 18.581877 18.581877 18.581877 18.581877 18.581877 18.581877 18.581877 18.581877 18.581877 18.581877 18.581877 18.581877 18.581877 18.581877 18.581877 18.581877 18.581877 18.581877 18.581877 18.581877 18.581877 18.581877 18.581877 18.581877 18.581877 18.581877 18.581877 18.581877 18.581877 18.581877 18.581877 18.581877 18.581877 18.581877 18.581877 18.581877 18.581877 18.581877 18.581877 18.581877 18.581877 18.581877 18.581877 18.581877 18.581877 18.581877 18.581877 18.581877 18.581877 18.581877 18.581877 18.581877 18.581877 18.581877 18.581877 18.581877 18.581877 18.581877 18.581877 18.581877 18.581877 18.581877 18.581877 18.581877 18.581877 18.581877 18.581877 18.581877 18.581877 18.581877 18.581877 18.581877 18.581877 18.581877 18.581877 18.581877 18.581877 18.581877 18.581877 18.581877 18.581877 18.581877 18.581877 18.581877 18.581877 18.581877 18.581877 18.581877 18.581877 18.581877 18.581877 18.581877 18.581877 18.581877 18.581877 18.581877 18.581877 18.581877 18.581877 18.581877 18.581877 18.581877 18.581877 18.581877 18.581877 18.581877 18.581877 18.581877 18.581877 18.581877 18.581877 18.581877 18.581877 18.581877 18.581877 18.581877 18.581877 18.581877 18.581877 18.581877 18.581877 18.581877 18.581877 18.581877 18.581877 18.581877 18.581877 18.581877 18.581877 18.581877 18.581877 18.581877 18.581877 18.581877 18.581877 18.581877 18.581877 18.581877 18.581877 18.581877 18.581877 18.581877 18.581877 18.581877 18.581877 18.581877 18.581877 18.581877 18.581877 18.581877 18.581877 18.581877 18.581877 18.581877 18.581877 18.581877 18.581877 18.581877 18.581877 18.581877 18.581877 18.581877 18.581877 18.581877 18.581877 18.581877 18.581877 18.581877 18.581877 18.581877 18.581877 18.581877 18.581877 18.581877 18.581877 18.581877 18.581877 18.581877 18.581877 18.581877 18.581877 18.581877 18.581877 18.581877 18.581877 18.581877 18.581877 18.581877 18.581877 18.581877 18.581877 18.581877 18.581877 18.581877 18.581877 18.581877 18.581877 18.581877 18.581877 18.581877 18.581877 18.581877 18.581877 18.581877 18.581877 18.581877 18.581877 18.581877 18.581877 18.581877 18.581877 18.581877 18.581877 18.581877 18.581877 18.581877 18.581877 18.581877 18.581877 18.581877 18.581877 18.581877 18.581877 18.581877 18.581877 18.581877 18.581877 18.581877 18.581877 18.581877 18.581877 18.581877 18.581877 18.581877 18.581877 18.581877 18.581877 18.581877 18.581877 18.581877 18.581877 18.581877 18.581877 18.581877 18.581877 18.581877 18.581877 18.581877 18.581877 18.581877 18.581877 18.581877 18.581877 18.581877 18.581877 18.581877 18.581877 18.581877 18.581877 18.581877 18.581877 18.581877 18.581877 18.581877 18.581877 18.581877 18.581877 18.581877 18.581877 18.581877 18.581877 18.581877 18.581877 18.581877 18.581877 18.581877 18.581877 18.581877 18.581877 18.581877 18.581877 18.581877 18.581877 18.581877 18.581877 18.581877 18.581877 18.581877 18.581877 18.581877 18.581877 18.581877 18.581877 18.581877 18.581877 18.581877 18.581877 18.581877 18.581877 18.581877 18.581877 18.581877 18.581877 18.581877 18.581877 18.581877 18.581877 18.581877 18.581877 18.581877 18.581877 18.581877 18.581877 18.581877 18.581877 18.581877 18.581877 18.581877 18.581877 18.581877 18.581877 18.581877 18.581877 18.581877 18.581877 18.581877 18.581877 18.581877 18.581877 18.581877 18.581877 18.581877 18.581877 18.581877 18.581877 18.581877 18.581877 18.581877 18.581877 18.581877 18.581877 18.581877 18.581877 18.581877 18.581877 18.581877 18.581877 18.581877 18.581877 18.581877 18.581877 18.581877 18.581877 18.581877 18.581877 18.581877 18.581877 18.581877 18.581877 18.581877 18.581877 18.581877 18.581877 18.581877 18.581877 18.581877 18.581877 18.581877 18.581877 18.581877 18.581877 18.581877 18.581877 18.581877 18.581877 18.581877 18.581877 18.581877 18.581877 18.581877 18.581877 18.581877 18.581877 18.581877 18.581877 18.581877 18.581877 18.581877 18.581877 18.581877 18.581877 18.581877 18.581877 18.581877 18.581877 18.581877 18.581877 18.581877 18.581877 18.581877 18.581877 18.581877 
</DataArray>
</CellData>
</Piece>
</UnstructuredGrid>
</VTKFile>
